POSCAR_of_example/config_insert_test
1.0
   30.00000	    0.00000	    0.00000
    0.00000	   30.00000	    0.00000
    0.00000	    0.00000	   15.00000
 B   N  
 671   672  
Direct
 0.029166659	 0.045237014	 0.200000000
 0.070833357	 0.045237014	 0.200000000
 0.112500008	 0.045237014	 0.200000000
 0.154166691	 0.045237014	 0.200000000
 0.195833341	 0.045237014	 0.200000000
 0.237499992	 0.045237014	 0.200000000
 0.279166674	 0.045237014	 0.200000000
 0.029166659	 0.116665572	 0.200000000
 0.070833357	 0.116665572	 0.200000000
 0.112500008	 0.116665572	 0.200000000
 0.154166691	 0.116665572	 0.200000000
 0.195833341	 0.116665572	 0.200000000
 0.237499992	 0.116665572	 0.200000000
 0.279166674	 0.116665572	 0.200000000
 0.029166659	 0.188094161	 0.200000000
 0.070833357	 0.188094161	 0.200000000
 0.112500008	 0.188094161	 0.200000000
 0.154166691	 0.188094161	 0.200000000
 0.195833341	 0.188094161	 0.200000000
 0.237499992	 0.188094161	 0.200000000
 0.279166674	 0.188094161	 0.200000000
 0.008333333	 0.009522892	 0.200000000
 0.050000000	 0.009522892	 0.200000000
 0.091666651	 0.009522892	 0.200000000
 0.133333334	 0.009522892	 0.200000000
 0.174999984	 0.009522892	 0.200000000
 0.216666666	 0.009522892	 0.200000000
 0.258333349	 0.009522892	 0.200000000
 0.008333333	 0.080951451	 0.200000000
 0.050000000	 0.080951451	 0.200000000
 0.091666651	 0.080951451	 0.200000000
 0.133333334	 0.080951451	 0.200000000
 0.174999984	 0.080951451	 0.200000000
 0.216666666	 0.080951451	 0.200000000
 0.258333349	 0.080951451	 0.200000000
 0.008333333	 0.152380039	 0.200000000
 0.050000000	 0.152380039	 0.200000000
 0.091666651	 0.152380039	 0.200000000
 0.133333334	 0.152380039	 0.200000000
 0.174999984	 0.152380039	 0.200000000
 0.216666666	 0.152380039	 0.200000000
 0.258333349	 0.152380039	 0.200000000
 0.029166659	 0.259522716	 0.200000000
 0.070833357	 0.259522716	 0.200000000
 0.112500008	 0.259522716	 0.200000000
 0.154166691	 0.259522716	 0.200000000
 0.195833341	 0.259522716	 0.200000000
 0.237499992	 0.259522716	 0.200000000
 0.279166674	 0.259522716	 0.200000000
 0.029166659	 0.330951286	 0.200000000
 0.070833357	 0.330951286	 0.200000000
 0.112500008	 0.330951286	 0.200000000
 0.154166691	 0.330951286	 0.200000000
 0.195833341	 0.330951286	 0.200000000
 0.237499992	 0.330951286	 0.200000000
 0.279166674	 0.330951286	 0.200000000
 0.029166659	 0.402379867	 0.200000000
 0.070833357	 0.402379867	 0.200000000
 0.112500008	 0.402379867	 0.200000000
 0.154166691	 0.402379867	 0.200000000
 0.195833341	 0.402379867	 0.200000000
 0.237499992	 0.402379867	 0.200000000
 0.279166674	 0.402379867	 0.200000000
 0.029166659	 0.473808425	 0.200000000
 0.070833357	 0.473808425	 0.200000000
 0.112500008	 0.473808425	 0.200000000
 0.154166691	 0.473808425	 0.200000000
 0.195833341	 0.473808425	 0.200000000
 0.237499992	 0.473808425	 0.200000000
 0.279166674	 0.473808425	 0.200000000
 0.029166659	 0.545237014	 0.200000000
 0.070833357	 0.545237014	 0.200000000
 0.112500008	 0.545237014	 0.200000000
 0.154166691	 0.545237014	 0.200000000
 0.195833341	 0.545237014	 0.200000000
 0.237499992	 0.545237014	 0.200000000
 0.279166674	 0.545237014	 0.200000000
 0.029166659	 0.616665572	 0.200000000
 0.070833357	 0.616665572	 0.200000000
 0.112500008	 0.616665572	 0.200000000
 0.154166691	 0.616665572	 0.200000000
 0.195833341	 0.616665572	 0.200000000
 0.237499992	 0.616665572	 0.200000000
 0.279166674	 0.616665572	 0.200000000
 0.029166659	 0.688094162	 0.200000000
 0.070833357	 0.688094162	 0.200000000
 0.112500008	 0.688094162	 0.200000000
 0.154166691	 0.688094162	 0.200000000
 0.195833341	 0.688094162	 0.200000000
 0.237499992	 0.688094162	 0.200000000
 0.279166674	 0.688094162	 0.200000000
 0.008333333	 0.223808593	 0.200000000
 0.050000000	 0.223808593	 0.200000000
 0.091666651	 0.223808593	 0.200000000
 0.133333334	 0.223808593	 0.200000000
 0.174999984	 0.223808593	 0.200000000
 0.216666666	 0.223808593	 0.200000000
 0.258333349	 0.223808593	 0.200000000
 0.008333333	 0.295237163	 0.200000000
 0.050000000	 0.295237163	 0.200000000
 0.091666651	 0.295237163	 0.200000000
 0.133333334	 0.295237163	 0.200000000
 0.174999984	 0.295237163	 0.200000000
 0.216666666	 0.295237163	 0.200000000
 0.258333349	 0.295237163	 0.200000000
 0.008333333	 0.366665745	 0.200000000
 0.050000000	 0.366665745	 0.200000000
 0.091666651	 0.366665745	 0.200000000
 0.133333334	 0.366665745	 0.200000000
 0.174999984	 0.366665745	 0.200000000
 0.216666666	 0.366665745	 0.200000000
 0.258333349	 0.366665745	 0.200000000
 0.008333333	 0.438094319	 0.200000000
 0.050000000	 0.438094319	 0.200000000
 0.091666651	 0.438094319	 0.200000000
 0.133333334	 0.438094319	 0.200000000
 0.174999984	 0.438094319	 0.200000000
 0.216666666	 0.438094319	 0.200000000
 0.258333349	 0.438094319	 0.200000000
 0.008333333	 0.509522892	 0.200000000
 0.050000000	 0.509522892	 0.200000000
 0.091666651	 0.509522892	 0.200000000
 0.133333334	 0.509522892	 0.200000000
 0.174999984	 0.509522892	 0.200000000
 0.216666666	 0.509522892	 0.200000000
 0.258333349	 0.509522892	 0.200000000
 0.008333333	 0.580951451	 0.200000000
 0.050000000	 0.580951451	 0.200000000
 0.091666651	 0.580951451	 0.200000000
 0.133333334	 0.580951451	 0.200000000
 0.174999984	 0.580951451	 0.200000000
 0.216666666	 0.580951451	 0.200000000
 0.258333349	 0.580951451	 0.200000000
 0.008333333	 0.652380040	 0.200000000
 0.050000000	 0.652380040	 0.200000000
 0.091666651	 0.652380040	 0.200000000
 0.133333334	 0.652380040	 0.200000000
 0.174999984	 0.652380040	 0.200000000
 0.216666666	 0.652380040	 0.200000000
 0.258333349	 0.652380040	 0.200000000
 0.029166659	 0.759522715	 0.200000000
 0.070833357	 0.759522715	 0.200000000
 0.112500008	 0.759522715	 0.200000000
 0.154166691	 0.759522715	 0.200000000
 0.195833341	 0.759522715	 0.200000000
 0.237499992	 0.759522715	 0.200000000
 0.279166674	 0.759522715	 0.200000000
 0.029166659	 0.830951285	 0.200000000
 0.070833357	 0.830951285	 0.200000000
 0.112500008	 0.830951285	 0.200000000
 0.154166691	 0.830951285	 0.200000000
 0.195833341	 0.830951285	 0.200000000
 0.237499992	 0.830951285	 0.200000000
 0.279166674	 0.830951285	 0.200000000
 0.029166659	 0.902379867	 0.200000000
 0.070833357	 0.902379867	 0.200000000
 0.112500008	 0.902379867	 0.200000000
 0.154166691	 0.902379867	 0.200000000
 0.195833341	 0.902379867	 0.200000000
 0.237499992	 0.902379867	 0.200000000
 0.279166674	 0.902379867	 0.200000000
 0.029166659	 0.973808425	 0.200000000
 0.070833357	 0.973808425	 0.200000000
 0.112500008	 0.973808425	 0.200000000
 0.154166691	 0.973808425	 0.200000000
 0.195833341	 0.973808425	 0.200000000
 0.237499992	 0.973808425	 0.200000000
 0.279166674	 0.973808425	 0.200000000
 0.008333333	 0.723808593	 0.200000000
 0.050000000	 0.723808593	 0.200000000
 0.091666651	 0.723808593	 0.200000000
 0.133333334	 0.723808593	 0.200000000
 0.174999984	 0.723808593	 0.200000000
 0.216666666	 0.723808593	 0.200000000
 0.258333349	 0.723808593	 0.200000000
 0.008333333	 0.795237163	 0.200000000
 0.050000000	 0.795237163	 0.200000000
 0.091666651	 0.795237163	 0.200000000
 0.133333334	 0.795237163	 0.200000000
 0.174999984	 0.795237163	 0.200000000
 0.216666666	 0.795237163	 0.200000000
 0.258333349	 0.795237163	 0.200000000
 0.008333333	 0.866665745	 0.200000000
 0.050000000	 0.866665745	 0.200000000
 0.091666651	 0.866665745	 0.200000000
 0.133333334	 0.866665745	 0.200000000
 0.174999984	 0.866665745	 0.200000000
 0.216666666	 0.866665745	 0.200000000
 0.258333349	 0.866665745	 0.200000000
 0.008333333	 0.938094318	 0.200000000
 0.050000000	 0.938094318	 0.200000000
 0.091666651	 0.938094318	 0.200000000
 0.133333334	 0.938094318	 0.200000000
 0.174999984	 0.938094318	 0.200000000
 0.216666666	 0.938094318	 0.200000000
 0.258333349	 0.938094318	 0.200000000
 0.320833333	 0.045237014	 0.200000000
 0.362500000	 0.045237014	 0.200000000
 0.404166674	 0.045237014	 0.200000000
 0.445833325	 0.045237014	 0.200000000
 0.487499992	 0.045237014	 0.200000000
 0.529166658	 0.045237014	 0.200000000
 0.570833357	 0.045237014	 0.200000000
 0.612500008	 0.045237014	 0.200000000
 0.654166690	 0.045237014	 0.200000000
 0.695833341	 0.045237014	 0.200000000
 0.737499992	 0.045237014	 0.200000000
 0.779166675	 0.045237014	 0.200000000
 0.320833333	 0.116665572	 0.200000000
 0.362500000	 0.116665572	 0.200000000
 0.404166674	 0.116665572	 0.200000000
 0.445833325	 0.116665572	 0.200000000
 0.487499992	 0.116665572	 0.200000000
 0.529166658	 0.116665572	 0.200000000
 0.570833357	 0.116665572	 0.200000000
 0.612500008	 0.116665572	 0.200000000
 0.654166690	 0.116665572	 0.200000000
 0.695833341	 0.116665572	 0.200000000
 0.737499992	 0.116665572	 0.200000000
 0.779166675	 0.116665572	 0.200000000
 0.320833333	 0.188094161	 0.200000000
 0.362500000	 0.188094161	 0.200000000
 0.404166674	 0.188094161	 0.200000000
 0.445833325	 0.188094161	 0.200000000
 0.487499992	 0.188094161	 0.200000000
 0.529166658	 0.188094161	 0.200000000
 0.570833357	 0.188094161	 0.200000000
 0.612500008	 0.188094161	 0.200000000
 0.654166690	 0.188094161	 0.200000000
 0.695833341	 0.188094161	 0.200000000
 0.737499992	 0.188094161	 0.200000000
 0.779166675	 0.188094161	 0.200000000
 0.300000000	 0.009522892	 0.200000000
 0.341666666	 0.009522892	 0.200000000
 0.383333333	 0.009522892	 0.200000000
 0.425000000	 0.009522892	 0.200000000
 0.466666666	 0.009522892	 0.200000000
 0.508333333	 0.009522892	 0.200000000
 0.550000000	 0.009522892	 0.200000000
 0.591666651	 0.009522892	 0.200000000
 0.633333333	 0.009522892	 0.200000000
 0.674999984	 0.009522892	 0.200000000
 0.716666666	 0.009522892	 0.200000000
 0.758333349	 0.009522892	 0.200000000
 0.300000000	 0.080951451	 0.200000000
 0.341666666	 0.080951451	 0.200000000
 0.383333333	 0.080951451	 0.200000000
 0.425000000	 0.080951451	 0.200000000
 0.466666666	 0.080951451	 0.200000000
 0.508333333	 0.080951451	 0.200000000
 0.550000000	 0.080951451	 0.200000000
 0.591666651	 0.080951451	 0.200000000
 0.633333333	 0.080951451	 0.200000000
 0.674999984	 0.080951451	 0.200000000
 0.716666666	 0.080951451	 0.200000000
 0.758333349	 0.080951451	 0.200000000
 0.300000000	 0.152380039	 0.200000000
 0.341666666	 0.152380039	 0.200000000
 0.383333333	 0.152380039	 0.200000000
 0.425000000	 0.152380039	 0.200000000
 0.466666666	 0.152380039	 0.200000000
 0.508333333	 0.152380039	 0.200000000
 0.550000000	 0.152380039	 0.200000000
 0.591666651	 0.152380039	 0.200000000
 0.633333333	 0.152380039	 0.200000000
 0.674999984	 0.152380039	 0.200000000
 0.716666666	 0.152380039	 0.200000000
 0.758333349	 0.152380039	 0.200000000
 0.320833333	 0.259522716	 0.214867172
 0.362500000	 0.259522716	 0.218444827
 0.404166674	 0.259522716	 0.222842259
 0.445833325	 0.259522716	 0.227815960
 0.487499992	 0.259522716	 0.232539408
 0.529166658	 0.259522716	 0.235558517
 0.570833357	 0.259522716	 0.235558517
 0.612500008	 0.259522716	 0.232539408
 0.654166690	 0.259522716	 0.227815958
 0.695833341	 0.259522716	 0.222842257
 0.737499992	 0.259522716	 0.218444827
 0.779166675	 0.259522716	 0.214867171
 0.320833333	 0.330951286	 0.219378128
 0.362500000	 0.330951286	 0.225934935
 0.404166674	 0.330951286	 0.235560875
 0.445833325	 0.330951286	 0.249278392
 0.487499992	 0.330951286	 0.266338284
 0.529166658	 0.330951286	 0.280224998
 0.570833357	 0.330951286	 0.280224995
 0.612500008	 0.330951286	 0.266338284
 0.654166690	 0.330951286	 0.249278386
 0.695833341	 0.330951286	 0.235560871
 0.737499992	 0.330951286	 0.225934937
 0.779166675	 0.330951286	 0.219378127
 0.320833333	 0.402379867	 0.222843721
 0.362500000	 0.402379867	 0.232542378
 0.404166674	 0.402379867	 0.249280686
 0.445833325	 0.402379867	 0.280231052
 0.487499992	 0.402379867	 0.338018905
 0.529166658	 0.402379867	 0.415699700
 0.570833357	 0.402379867	 0.415699678
 0.612500008	 0.402379867	 0.338018905
 0.654166690	 0.402379867	 0.280231036
 0.695833341	 0.402379867	 0.249280678
 0.737499992	 0.402379867	 0.232542381
 0.779166675	 0.402379867	 0.222843720
 0.320833333	 0.473808425	 0.222843731
 0.362500000	 0.473808425	 0.232542398
 0.404166674	 0.473808425	 0.249280732
 0.445833325	 0.473808425	 0.280231174
 0.487499992	 0.473808425	 0.338019265
 0.529166658	 0.473808425	 0.415700580
 0.570833357	 0.473808425	 0.415700557
 0.612500008	 0.473808425	 0.338019265
 0.654166690	 0.473808425	 0.280231158
 0.695833341	 0.473808425	 0.249280724
 0.737499992	 0.473808425	 0.232542401
 0.779166675	 0.473808425	 0.222843730
 0.320833333	 0.545237014	 0.219378149
 0.362500000	 0.545237014	 0.225934973
 0.404166674	 0.545237014	 0.235560945
 0.445833325	 0.545237014	 0.249278527
 0.487499992	 0.545237014	 0.266338528
 0.529166658	 0.545237014	 0.280225355
 0.570833357	 0.545237014	 0.280225352
 0.612500008	 0.545237014	 0.266338528
 0.654166690	 0.545237014	 0.249278521
 0.695833341	 0.545237014	 0.235560941
 0.737499992	 0.545237014	 0.225934974
 0.779166675	 0.545237014	 0.219378148
 0.320833333	 0.616665572	 0.214867193
 0.362500000	 0.616665572	 0.218444859
 0.404166674	 0.616665572	 0.222842309
 0.445833325	 0.616665572	 0.227816034
 0.487499992	 0.616665572	 0.232539510
 0.529166658	 0.616665572	 0.235558639
 0.570833357	 0.616665572	 0.235558638
 0.612500008	 0.616665572	 0.232539510
 0.654166690	 0.616665572	 0.227816032
 0.695833341	 0.616665572	 0.222842307
 0.737499992	 0.616665572	 0.218444860
 0.779166675	 0.616665572	 0.214867193
 0.320833333	 0.688094162	 0.211019439
 0.362500000	 0.688094162	 0.212869652
 0.404166674	 0.688094162	 0.214866585
 0.445833325	 0.688094162	 0.216824531
 0.487499992	 0.688094162	 0.218443922
 0.529166658	 0.688094162	 0.219376431
 0.570833357	 0.688094162	 0.219376430
 0.612500008	 0.688094162	 0.218443922
 0.654166690	 0.688094162	 0.216824531
 0.695833341	 0.688094162	 0.214866584
 0.737499992	 0.688094162	 0.212869652
 0.779166675	 0.688094162	 0.211019439
 0.300000000	 0.223808593	 0.211691986
 0.341666666	 0.223808593	 0.214049389
 0.383333333	 0.223808593	 0.216824938
 0.425000000	 0.223808593	 0.219879528
 0.466666666	 0.223808593	 0.222841620
 0.508333333	 0.223808593	 0.225084177
 0.550000000	 0.223808593	 0.225932860
 0.591666651	 0.223808593	 0.225084177
 0.633333333	 0.223808593	 0.222841620
 0.674999984	 0.223808593	 0.219879530
 0.716666666	 0.223808593	 0.216824938
 0.758333349	 0.223808593	 0.214049388
 0.300000000	 0.295237163	 0.215161496
 0.341666666	 0.295237163	 0.219377835
 0.383333333	 0.295237163	 0.225085627
 0.425000000	 0.295237163	 0.232540555
 0.466666666	 0.295237163	 0.241309321
 0.508333333	 0.295237163	 0.249276501
 0.550000000	 0.295237163	 0.252662083
 0.591666651	 0.295237163	 0.249276503
 0.633333333	 0.295237163	 0.241309321
 0.674999984	 0.295237163	 0.232540558
 0.716666666	 0.295237163	 0.225085627
 0.758333349	 0.295237163	 0.219377833
 0.300000000	 0.366665745	 0.218445666
 0.341666666	 0.366665745	 0.225086499
 0.383333333	 0.366665745	 0.235561638
 0.425000000	 0.366665745	 0.252665924
 0.466666666	 0.366665745	 0.280228892
 0.508333333	 0.366665745	 0.316953940
 0.550000000	 0.366665745	 0.338012504
 0.591666651	 0.366665745	 0.316953953
 0.633333333	 0.366665745	 0.280228892
 0.674999984	 0.366665745	 0.252665933
 0.716666666	 0.366665745	 0.235561638
 0.758333349	 0.366665745	 0.225086496
 0.300000000	 0.438094319	 0.219881169
 0.341666666	 0.438094319	 0.227818226
 0.383333333	 0.438094319	 0.241312471
 0.425000000	 0.438094319	 0.266342978
 0.466666666	 0.438094319	 0.316960247
 0.508333333	 0.438094319	 0.415705496
 0.591666651	 0.438094319	 0.415705542
 0.633333333	 0.438094319	 0.316960247
 0.674999984	 0.438094319	 0.266342991
 0.716666666	 0.438094319	 0.241312471
 0.758333349	 0.438094319	 0.227818223
 0.300000000	 0.509522892	 0.218445666
 0.341666666	 0.509522892	 0.225086499
 0.383333333	 0.509522892	 0.235561638
 0.425000000	 0.509522892	 0.252665924
 0.466666666	 0.509522892	 0.280228891
 0.508333333	 0.509522892	 0.316953939
 0.550000000	 0.509522892	 0.338012503
 0.591666651	 0.509522892	 0.316953952
 0.633333333	 0.509522892	 0.280228891
 0.674999984	 0.509522892	 0.252665933
 0.716666666	 0.509522892	 0.235561638
 0.758333349	 0.509522892	 0.225086496
 0.300000000	 0.580951451	 0.215161497
 0.341666666	 0.580951451	 0.219377837
 0.383333333	 0.580951451	 0.225085630
 0.425000000	 0.580951451	 0.232540560
 0.466666666	 0.580951451	 0.241309329
 0.508333333	 0.580951451	 0.249276513
 0.550000000	 0.580951451	 0.252662097
 0.591666651	 0.580951451	 0.249276515
 0.633333333	 0.580951451	 0.241309329
 0.674999984	 0.580951451	 0.232540563
 0.716666666	 0.580951451	 0.225085630
 0.758333349	 0.580951451	 0.219377835
 0.300000000	 0.652380040	 0.211691986
 0.341666666	 0.652380040	 0.214049389
 0.383333333	 0.652380040	 0.216824938
 0.425000000	 0.652380040	 0.219879529
 0.466666666	 0.652380040	 0.222841620
 0.508333333	 0.652380040	 0.225084178
 0.550000000	 0.652380040	 0.225932861
 0.591666651	 0.652380040	 0.225084178
 0.633333333	 0.652380040	 0.222841620
 0.674999984	 0.652380040	 0.219879530
 0.716666666	 0.652380040	 0.216824938
 0.758333349	 0.652380040	 0.214049388
 0.320833333	 0.759522715	 0.200000000
 0.362500000	 0.759522715	 0.200000000
 0.404166674	 0.759522715	 0.200000000
 0.445833325	 0.759522715	 0.200000000
 0.487499992	 0.759522715	 0.200000000
 0.529166658	 0.759522715	 0.200000000
 0.570833357	 0.759522715	 0.200000000
 0.612500008	 0.759522715	 0.200000000
 0.654166690	 0.759522715	 0.200000000
 0.695833341	 0.759522715	 0.200000000
 0.737499992	 0.759522715	 0.200000000
 0.779166675	 0.759522715	 0.200000000
 0.320833333	 0.830951285	 0.200000000
 0.362500000	 0.830951285	 0.200000000
 0.404166674	 0.830951285	 0.200000000
 0.445833325	 0.830951285	 0.200000000
 0.487499992	 0.830951285	 0.200000000
 0.529166658	 0.830951285	 0.200000000
 0.570833357	 0.830951285	 0.200000000
 0.612500008	 0.830951285	 0.200000000
 0.654166690	 0.830951285	 0.200000000
 0.695833341	 0.830951285	 0.200000000
 0.737499992	 0.830951285	 0.200000000
 0.779166675	 0.830951285	 0.200000000
 0.320833333	 0.902379867	 0.200000000
 0.362500000	 0.902379867	 0.200000000
 0.404166674	 0.902379867	 0.200000000
 0.445833325	 0.902379867	 0.200000000
 0.487499992	 0.902379867	 0.200000000
 0.529166658	 0.902379867	 0.200000000
 0.570833357	 0.902379867	 0.200000000
 0.612500008	 0.902379867	 0.200000000
 0.654166690	 0.902379867	 0.200000000
 0.695833341	 0.902379867	 0.200000000
 0.737499992	 0.902379867	 0.200000000
 0.779166675	 0.902379867	 0.200000000
 0.320833333	 0.973808425	 0.200000000
 0.362500000	 0.973808425	 0.200000000
 0.404166674	 0.973808425	 0.200000000
 0.445833325	 0.973808425	 0.200000000
 0.487499992	 0.973808425	 0.200000000
 0.529166658	 0.973808425	 0.200000000
 0.570833357	 0.973808425	 0.200000000
 0.612500008	 0.973808425	 0.200000000
 0.654166690	 0.973808425	 0.200000000
 0.695833341	 0.973808425	 0.200000000
 0.737499992	 0.973808425	 0.200000000
 0.779166675	 0.973808425	 0.200000000
 0.300000000	 0.723808593	 0.200000000
 0.341666666	 0.723808593	 0.200000000
 0.383333333	 0.723808593	 0.200000000
 0.425000000	 0.723808593	 0.200000000
 0.466666666	 0.723808593	 0.200000000
 0.508333333	 0.723808593	 0.200000000
 0.550000000	 0.723808593	 0.200000000
 0.591666651	 0.723808593	 0.200000000
 0.633333333	 0.723808593	 0.200000000
 0.674999984	 0.723808593	 0.200000000
 0.716666666	 0.723808593	 0.200000000
 0.758333349	 0.723808593	 0.200000000
 0.300000000	 0.795237163	 0.200000000
 0.341666666	 0.795237163	 0.200000000
 0.383333333	 0.795237163	 0.200000000
 0.425000000	 0.795237163	 0.200000000
 0.466666666	 0.795237163	 0.200000000
 0.508333333	 0.795237163	 0.200000000
 0.550000000	 0.795237163	 0.200000000
 0.591666651	 0.795237163	 0.200000000
 0.633333333	 0.795237163	 0.200000000
 0.674999984	 0.795237163	 0.200000000
 0.716666666	 0.795237163	 0.200000000
 0.758333349	 0.795237163	 0.200000000
 0.300000000	 0.866665745	 0.200000000
 0.341666666	 0.866665745	 0.200000000
 0.383333333	 0.866665745	 0.200000000
 0.425000000	 0.866665745	 0.200000000
 0.466666666	 0.866665745	 0.200000000
 0.508333333	 0.866665745	 0.200000000
 0.550000000	 0.866665745	 0.200000000
 0.591666651	 0.866665745	 0.200000000
 0.633333333	 0.866665745	 0.200000000
 0.674999984	 0.866665745	 0.200000000
 0.716666666	 0.866665745	 0.200000000
 0.758333349	 0.866665745	 0.200000000
 0.300000000	 0.938094318	 0.200000000
 0.341666666	 0.938094318	 0.200000000
 0.383333333	 0.938094318	 0.200000000
 0.425000000	 0.938094318	 0.200000000
 0.466666666	 0.938094318	 0.200000000
 0.508333333	 0.938094318	 0.200000000
 0.550000000	 0.938094318	 0.200000000
 0.591666651	 0.938094318	 0.200000000
 0.633333333	 0.938094318	 0.200000000
 0.674999984	 0.938094318	 0.200000000
 0.716666666	 0.938094318	 0.200000000
 0.758333349	 0.938094318	 0.200000000
 0.820833333	 0.045237014	 0.200000000
 0.862500000	 0.045237014	 0.200000000
 0.904166674	 0.045237014	 0.200000000
 0.945833325	 0.045237014	 0.200000000
 0.987499992	 0.045237014	 0.200000000
 0.820833333	 0.116665572	 0.200000000
 0.862500000	 0.116665572	 0.200000000
 0.904166674	 0.116665572	 0.200000000
 0.945833325	 0.116665572	 0.200000000
 0.987499992	 0.116665572	 0.200000000
 0.820833333	 0.188094161	 0.200000000
 0.862500000	 0.188094161	 0.200000000
 0.904166674	 0.188094161	 0.200000000
 0.945833325	 0.188094161	 0.200000000
 0.987499992	 0.188094161	 0.200000000
 0.800000000	 0.009522892	 0.200000000
 0.841666666	 0.009522892	 0.200000000
 0.883333333	 0.009522892	 0.200000000
 0.925000000	 0.009522892	 0.200000000
 0.966666666	 0.009522892	 0.200000000
 0.800000000	 0.080951451	 0.200000000
 0.841666666	 0.080951451	 0.200000000
 0.883333333	 0.080951451	 0.200000000
 0.925000000	 0.080951451	 0.200000000
 0.966666666	 0.080951451	 0.200000000
 0.800000000	 0.152380039	 0.200000000
 0.841666666	 0.152380039	 0.200000000
 0.883333333	 0.152380039	 0.200000000
 0.925000000	 0.152380039	 0.200000000
 0.966666666	 0.152380039	 0.200000000
 0.820833333	 0.259522716	 0.200000000
 0.862500000	 0.259522716	 0.200000000
 0.904166674	 0.259522716	 0.200000000
 0.945833325	 0.259522716	 0.200000000
 0.987499992	 0.259522716	 0.200000000
 0.820833333	 0.330951286	 0.200000000
 0.862500000	 0.330951286	 0.200000000
 0.904166674	 0.330951286	 0.200000000
 0.945833325	 0.330951286	 0.200000000
 0.987499992	 0.330951286	 0.200000000
 0.820833333	 0.402379867	 0.200000000
 0.862500000	 0.402379867	 0.200000000
 0.904166674	 0.402379867	 0.200000000
 0.945833325	 0.402379867	 0.200000000
 0.987499992	 0.402379867	 0.200000000
 0.820833333	 0.473808425	 0.200000000
 0.862500000	 0.473808425	 0.200000000
 0.904166674	 0.473808425	 0.200000000
 0.945833325	 0.473808425	 0.200000000
 0.987499992	 0.473808425	 0.200000000
 0.820833333	 0.545237014	 0.200000000
 0.862500000	 0.545237014	 0.200000000
 0.904166674	 0.545237014	 0.200000000
 0.945833325	 0.545237014	 0.200000000
 0.987499992	 0.545237014	 0.200000000
 0.820833333	 0.616665572	 0.200000000
 0.862500000	 0.616665572	 0.200000000
 0.904166674	 0.616665572	 0.200000000
 0.945833325	 0.616665572	 0.200000000
 0.987499992	 0.616665572	 0.200000000
 0.820833333	 0.688094162	 0.200000000
 0.862500000	 0.688094162	 0.200000000
 0.904166674	 0.688094162	 0.200000000
 0.945833325	 0.688094162	 0.200000000
 0.987499992	 0.688094162	 0.200000000
 0.800000000	 0.223808593	 0.200000000
 0.841666666	 0.223808593	 0.200000000
 0.883333333	 0.223808593	 0.200000000
 0.925000000	 0.223808593	 0.200000000
 0.966666666	 0.223808593	 0.200000000
 0.800000000	 0.295237163	 0.200000000
 0.841666666	 0.295237163	 0.200000000
 0.883333333	 0.295237163	 0.200000000
 0.925000000	 0.295237163	 0.200000000
 0.966666666	 0.295237163	 0.200000000
 0.800000000	 0.366665745	 0.200000000
 0.841666666	 0.366665745	 0.200000000
 0.883333333	 0.366665745	 0.200000000
 0.925000000	 0.366665745	 0.200000000
 0.966666666	 0.366665745	 0.200000000
 0.800000000	 0.438094319	 0.200000000
 0.841666666	 0.438094319	 0.200000000
 0.883333333	 0.438094319	 0.200000000
 0.925000000	 0.438094319	 0.200000000
 0.966666666	 0.438094319	 0.200000000
 0.800000000	 0.509522892	 0.200000000
 0.841666666	 0.509522892	 0.200000000
 0.883333333	 0.509522892	 0.200000000
 0.925000000	 0.509522892	 0.200000000
 0.966666666	 0.509522892	 0.200000000
 0.800000000	 0.580951451	 0.200000000
 0.841666666	 0.580951451	 0.200000000
 0.883333333	 0.580951451	 0.200000000
 0.925000000	 0.580951451	 0.200000000
 0.966666666	 0.580951451	 0.200000000
 0.800000000	 0.652380040	 0.200000000
 0.841666666	 0.652380040	 0.200000000
 0.883333333	 0.652380040	 0.200000000
 0.925000000	 0.652380040	 0.200000000
 0.966666666	 0.652380040	 0.200000000
 0.820833333	 0.759522715	 0.200000000
 0.862500000	 0.759522715	 0.200000000
 0.904166674	 0.759522715	 0.200000000
 0.945833325	 0.759522715	 0.200000000
 0.987499992	 0.759522715	 0.200000000
 0.820833333	 0.830951285	 0.200000000
 0.862500000	 0.830951285	 0.200000000
 0.904166674	 0.830951285	 0.200000000
 0.945833325	 0.830951285	 0.200000000
 0.987499992	 0.830951285	 0.200000000
 0.820833333	 0.902379867	 0.200000000
 0.862500000	 0.902379867	 0.200000000
 0.904166674	 0.902379867	 0.200000000
 0.945833325	 0.902379867	 0.200000000
 0.987499992	 0.902379867	 0.200000000
 0.820833333	 0.973808425	 0.200000000
 0.862500000	 0.973808425	 0.200000000
 0.904166674	 0.973808425	 0.200000000
 0.945833325	 0.973808425	 0.200000000
 0.987499992	 0.973808425	 0.200000000
 0.800000000	 0.723808593	 0.200000000
 0.841666666	 0.723808593	 0.200000000
 0.883333333	 0.723808593	 0.200000000
 0.925000000	 0.723808593	 0.200000000
 0.966666666	 0.723808593	 0.200000000
 0.800000000	 0.795237163	 0.200000000
 0.841666666	 0.795237163	 0.200000000
 0.883333333	 0.795237163	 0.200000000
 0.925000000	 0.795237163	 0.200000000
 0.966666666	 0.795237163	 0.200000000
 0.800000000	 0.866665745	 0.200000000
 0.841666666	 0.866665745	 0.200000000
 0.883333333	 0.866665745	 0.200000000
 0.925000000	 0.866665745	 0.200000000
 0.966666666	 0.866665745	 0.200000000
 0.800000000	 0.938094318	 0.200000000
 0.841666666	 0.938094318	 0.200000000
 0.883333333	 0.938094318	 0.200000000
 0.925000000	 0.938094318	 0.200000000
 0.966666666	 0.938094318	 0.200000000
 0.029166659	 0.069048628	 0.200000000
 0.070833357	 0.069048628	 0.200000000
 0.112500008	 0.069048628	 0.200000000
 0.154166691	 0.069048628	 0.200000000
 0.195833341	 0.069048628	 0.200000000
 0.237499992	 0.069048628	 0.200000000
 0.279166674	 0.069048628	 0.200000000
 0.029166659	 0.140477186	 0.200000000
 0.070833357	 0.140477186	 0.200000000
 0.112500008	 0.140477186	 0.200000000
 0.154166691	 0.140477186	 0.200000000
 0.195833341	 0.140477186	 0.200000000
 0.237499992	 0.140477186	 0.200000000
 0.279166674	 0.140477186	 0.200000000
 0.008333333	 0.033334381	 0.200000000
 0.050000000	 0.033334381	 0.200000000
 0.091666651	 0.033334381	 0.200000000
 0.133333334	 0.033334381	 0.200000000
 0.174999984	 0.033334381	 0.200000000
 0.216666666	 0.033334381	 0.200000000
 0.258333349	 0.033334381	 0.200000000
 0.008333333	 0.104762938	 0.200000000
 0.050000000	 0.104762938	 0.200000000
 0.091666651	 0.104762938	 0.200000000
 0.133333334	 0.104762938	 0.200000000
 0.174999984	 0.104762938	 0.200000000
 0.216666666	 0.104762938	 0.200000000
 0.258333349	 0.104762938	 0.200000000
 0.008333333	 0.176191528	 0.200000000
 0.050000000	 0.176191528	 0.200000000
 0.091666651	 0.176191528	 0.200000000
 0.133333334	 0.176191528	 0.200000000
 0.174999984	 0.176191528	 0.200000000
 0.216666666	 0.176191528	 0.200000000
 0.258333349	 0.176191528	 0.200000000
 0.029166659	 0.211905749	 0.200000000
 0.070833357	 0.211905749	 0.200000000
 0.112500008	 0.211905749	 0.200000000
 0.154166691	 0.211905749	 0.200000000
 0.195833341	 0.211905749	 0.200000000
 0.237499992	 0.211905749	 0.200000000
 0.279166674	 0.211905749	 0.200000000
 0.029166659	 0.283334326	 0.200000000
 0.070833357	 0.283334326	 0.200000000
 0.112500008	 0.283334326	 0.200000000
 0.154166691	 0.283334326	 0.200000000
 0.195833341	 0.283334326	 0.200000000
 0.237499992	 0.283334326	 0.200000000
 0.279166674	 0.283334326	 0.200000000
 0.029166659	 0.354762892	 0.200000000
 0.070833357	 0.354762892	 0.200000000
 0.112500008	 0.354762892	 0.200000000
 0.154166691	 0.354762892	 0.200000000
 0.195833341	 0.354762892	 0.200000000
 0.237499992	 0.354762892	 0.200000000
 0.279166674	 0.354762892	 0.200000000
 0.029166659	 0.426191465	 0.200000000
 0.070833357	 0.426191465	 0.200000000
 0.112500008	 0.426191465	 0.200000000
 0.154166691	 0.426191465	 0.200000000
 0.195833341	 0.426191465	 0.200000000
 0.237499992	 0.426191465	 0.200000000
 0.279166674	 0.426191465	 0.200000000
 0.029166659	 0.497620071	 0.200000000
 0.070833357	 0.497620071	 0.200000000
 0.112500008	 0.497620071	 0.200000000
 0.154166691	 0.497620071	 0.200000000
 0.195833341	 0.497620071	 0.200000000
 0.237499992	 0.497620071	 0.200000000
 0.279166674	 0.497620071	 0.200000000
 0.029166659	 0.569048628	 0.200000000
 0.070833357	 0.569048628	 0.200000000
 0.112500008	 0.569048628	 0.200000000
 0.154166691	 0.569048628	 0.200000000
 0.195833341	 0.569048628	 0.200000000
 0.237499992	 0.569048628	 0.200000000
 0.279166674	 0.569048628	 0.200000000
 0.029166659	 0.640477186	 0.200000000
 0.070833357	 0.640477186	 0.200000000
 0.112500008	 0.640477186	 0.200000000
 0.154166691	 0.640477186	 0.200000000
 0.195833341	 0.640477186	 0.200000000
 0.237499992	 0.640477186	 0.200000000
 0.279166674	 0.640477186	 0.200000000
 0.008333333	 0.247620086	 0.200000000
 0.050000000	 0.247620086	 0.200000000
 0.091666651	 0.247620086	 0.200000000
 0.133333334	 0.247620086	 0.200000000
 0.174999984	 0.247620086	 0.200000000
 0.216666666	 0.247620086	 0.200000000
 0.258333349	 0.247620086	 0.200000000
 0.008333333	 0.319048652	 0.200000000
 0.050000000	 0.319048652	 0.200000000