POSCAR_of_example/config_simple
1.0
   98.81302	    0.00000	    0.00000
    0.00000	   99.14104	    0.00000
    0.00000	    0.00000	    4.99977
 B   N  
 1816   1817  
Direct
 0.012012385	 0.037819656	 1.000000000
 0.037345382	 0.037819656	 1.000000000
 0.024678833	 0.015952021	 1.000000000
 0.012012385	 0.081555126	 1.000000000
 0.037345382	 0.081555126	 1.000000000
 0.012012385	 0.125290596	 1.000000000
 0.037345382	 0.125290596	 1.000000000
 0.012012385	 0.169026066	 1.000000000
 0.037345382	 0.169026066	 1.000000000
 0.012012385	 0.212761536	 1.000000000
 0.037345382	 0.212761536	 1.000000000
 0.012012385	 0.256497007	 1.000000000
 0.037345382	 0.256497007	 1.000000000
 0.012012385	 0.300232477	 1.000000000
 0.037345382	 0.300232477	 1.000000000
 0.012012385	 0.343967947	 1.000000000
 0.037345382	 0.343967947	 1.000000000
 0.024678833	 0.059687492	 1.000000000
 0.024678833	 0.103422962	 1.000000000
 0.024678833	 0.147158432	 1.000000000
 0.024678833	 0.190893902	 1.000000000
 0.024678833	 0.234629372	 1.000000000
 0.024678833	 0.278364843	 1.000000000
 0.024678833	 0.322100313	 1.000000000
 0.012012385	 0.387703417	 1.000000000
 0.037345382	 0.387703417	 1.000000000
 0.012012385	 0.431438887	 1.000000000
 0.037345382	 0.431438887	 1.000000000
 0.012012385	 0.475174358	 1.000000000
 0.037345382	 0.475174358	 1.000000000
 0.012012385	 0.518909828	 1.000000000
 0.037345382	 0.518909828	 1.000000000
 0.012012385	 0.562645298	 1.000000000
 0.037345382	 0.562645298	 1.000000000
 0.012012385	 0.606380768	 1.000000000
 0.037345382	 0.606380768	 1.000000000
 0.012012385	 0.650116238	 1.000000000
 0.037345382	 0.650116238	 1.000000000
 0.024678833	 0.365835783	 1.000000000
 0.024678833	 0.409571253	 1.000000000
 0.024678833	 0.453306723	 1.000000000
 0.024678833	 0.497042194	 1.000000000
 0.024678833	 0.540777664	 1.000000000
 0.024678833	 0.584513134	 1.000000000
 0.024678833	 0.628248604	 1.000000000
 0.012012385	 0.693851709	 1.000000000
 0.037345382	 0.693851709	 1.000000000
 0.012012385	 0.737587179	 1.000000000
 0.037345382	 0.737587179	 1.000000000
 0.012012385	 0.781322649	 1.000000000
 0.037345382	 0.781322649	 1.000000000
 0.012012385	 0.825058119	 1.000000000
 0.037345382	 0.825058119	 1.000000000
 0.012012385	 0.868793589	 1.000000000
 0.037345382	 0.868793589	 1.000000000
 0.012012385	 0.912529060	 1.000000000
 0.037345382	 0.912529060	 1.000000000
 0.012012385	 0.956264530	 1.000000000
 0.037345382	 0.956264530	 1.000000000
 0.024678833	 0.671984074	 1.000000000
 0.024678833	 0.715719545	 1.000000000
 0.024678833	 0.759455015	 1.000000000
 0.024678833	 0.803190485	 1.000000000
 0.024678833	 0.846925955	 1.000000000
 0.024678833	 0.890661425	 1.000000000
 0.024678833	 0.934396896	 1.000000000
 0.012012385	 1.000000000	 1.000000000
 0.037345382	 1.000000000	 1.000000000
 0.024678833	 0.978132366	 1.000000000
 0.062678380	 0.037819656	 1.000000000
 0.088011377	 0.037819656	 1.000000000
 0.113344375	 0.037819656	 1.000000000
 0.138677474	 0.037819656	 1.000000000
 0.164010471	 0.037819656	 1.000000000
 0.189343469	 0.037819656	 1.000000000
 0.214676467	 0.037819656	 1.000000000
 0.240009464	 0.037819656	 1.000000000
 0.265342563	 0.037819656	 1.000000000
 0.290675561	 0.037819656	 1.000000000
 0.316008558	 0.037819656	 1.000000000
 0.341341556	 0.037819656	 1.000000000
 0.050011830	 0.015952021	 1.000000000
 0.075344929	 0.015952021	 1.000000000
 0.100677927	 0.015952021	 1.000000000
 0.126010924	 0.015952021	 1.000000000
 0.151343922	 0.015952021	 1.000000000
 0.176676920	 0.015952021	 1.000000000
 0.202010019	 0.015952021	 1.000000000
 0.227343016	 0.015952021	 1.000000000
 0.252676014	 0.015952021	 1.000000000
 0.278009011	 0.015952021	 1.000000000
 0.303342009	 0.015952021	 1.000000000
 0.328675108	 0.015952021	 1.000000000
 0.062678380	 0.081555126	 1.000000000
 0.088011377	 0.081555126	 1.000000000
 0.113344375	 0.081555126	 1.000000000
 0.138677474	 0.081555126	 1.000000000
 0.164010471	 0.081555126	 1.000000000
 0.189343469	 0.081555126	 1.000000000
 0.214676467	 0.081555126	 1.000000000
 0.240009464	 0.081555126	 1.000000000
 0.265342563	 0.081555126	 1.000000000
 0.290675561	 0.081555126	 1.000000000
 0.316008558	 0.081555126	 1.000000000
 0.341341556	 0.081555126	 1.000000000
 0.062678380	 0.125290596	 1.000000000
 0.088011377	 0.125290596	 1.000000000
 0.113344375	 0.125290596	 1.000000000
 0.138677474	 0.125290596	 1.000000000
 0.164010471	 0.125290596	 1.000000000
 0.189343469	 0.125290596	 1.000000000
 0.214676467	 0.125290596	 1.000000000
 0.240009464	 0.125290596	 1.000000000
 0.265342563	 0.125290596	 1.000000000
 0.290675561	 0.125290596	 1.000000000
 0.316008558	 0.125290596	 1.000000000
 0.341341556	 0.125290596	 1.000000000
 0.062678380	 0.169026066	 1.000000000
 0.088011377	 0.169026066	 1.000000000
 0.113344375	 0.169026066	 1.000000000
 0.138677474	 0.169026066	 1.000000000
 0.164010471	 0.169026066	 1.000000000
 0.189343469	 0.169026066	 1.000000000
 0.214676467	 0.169026066	 1.000000000
 0.240009464	 0.169026066	 1.000000000
 0.265342563	 0.169026066	 1.000000000
 0.290675561	 0.169026066	 1.000000000
 0.316008558	 0.169026066	 1.000000000
 0.341341556	 0.169026066	 1.000000000
 0.062678380	 0.212761536	 1.000000000
 0.088011377	 0.212761536	 1.000000000
 0.113344375	 0.212761536	 1.000000000
 0.138677474	 0.212761536	 1.000000000
 0.164010471	 0.212761536	 1.000000000
 0.189343469	 0.212761536	 1.000000000
 0.214676467	 0.212761536	 1.000000000
 0.240009464	 0.212761536	 1.000000000
 0.265342563	 0.212761536	 1.000000000
 0.290675561	 0.212761536	 1.000000000
 0.316008558	 0.212761536	 1.000000000
 0.341341556	 0.212761536	 1.000000000
 0.062678380	 0.256497007	 1.000000000
 0.088011377	 0.256497007	 1.000000000
 0.113344375	 0.256497007	 1.000000000
 0.138677474	 0.256497007	 1.000000000
 0.164010471	 0.256497007	 1.000000000
 0.189343469	 0.256497007	 1.000000000
 0.214676467	 0.256497007	 1.000000000
 0.240009464	 0.256497007	 1.000000000
 0.265342563	 0.256497007	 1.000000000
 0.290675561	 0.256497007	 1.000000000
 0.316008558	 0.256497007	 1.000000000
 0.341341556	 0.256497007	 1.000000000
 0.062678380	 0.300232477	 1.000000000
 0.088011377	 0.300232477	 1.000000000
 0.113344375	 0.300232477	 1.000000000
 0.138677474	 0.300232477	 1.000000000
 0.164010471	 0.300232477	 1.000000000
 0.189343469	 0.300232477	 1.000000000
 0.214676467	 0.300232477	 1.000000000
 0.240009464	 0.300232477	 1.000000000
 0.265342563	 0.300232477	 1.000000000
 0.290675561	 0.300232477	 1.000000000
 0.316008558	 0.300232477	 1.000000000
 0.341341556	 0.300232477	 1.000000000
 0.062678380	 0.343967947	 1.000000000
 0.088011377	 0.343967947	 1.000000000
 0.113344375	 0.343967947	 1.000000000
 0.138677474	 0.343967947	 1.000000000
 0.164010471	 0.343967947	 1.000000000
 0.189343469	 0.343967947	 1.000000000
 0.214676467	 0.343967947	 1.000000000
 0.240009464	 0.343967947	 1.000000000
 0.265342563	 0.343967947	 1.000000000
 0.290675561	 0.343967947	 1.000000000
 0.316008558	 0.343967947	 1.000000000
 0.341341556	 0.343967947	 1.000000000
 0.050011830	 0.059687492	 1.000000000
 0.075344929	 0.059687492	 1.000000000
 0.100677927	 0.059687492	 1.000000000
 0.126010924	 0.059687492	 1.000000000
 0.151343922	 0.059687492	 1.000000000
 0.176676920	 0.059687492	 1.000000000
 0.202010019	 0.059687492	 1.000000000
 0.227343016	 0.059687492	 1.000000000
 0.252676014	 0.059687492	 1.000000000
 0.278009011	 0.059687492	 1.000000000
 0.303342009	 0.059687492	 1.000000000
 0.328675108	 0.059687492	 1.000000000
 0.050011830	 0.103422962	 1.000000000
 0.075344929	 0.103422962	 1.000000000
 0.100677927	 0.103422962	 1.000000000
 0.126010924	 0.103422962	 1.000000000
 0.151343922	 0.103422962	 1.000000000
 0.176676920	 0.103422962	 1.000000000
 0.202010019	 0.103422962	 1.000000000
 0.227343016	 0.103422962	 1.000000000
 0.252676014	 0.103422962	 1.000000000
 0.278009011	 0.103422962	 1.000000000
 0.303342009	 0.103422962	 1.000000000
 0.328675108	 0.103422962	 1.000000000
 0.050011830	 0.147158432	 1.000000000
 0.075344929	 0.147158432	 1.000000000
 0.100677927	 0.147158432	 1.000000000
 0.126010924	 0.147158432	 1.000000000
 0.151343922	 0.147158432	 1.000000000
 0.176676920	 0.147158432	 1.000000000
 0.202010019	 0.147158432	 1.000000000
 0.227343016	 0.147158432	 1.000000000
 0.252676014	 0.147158432	 1.000000000
 0.278009011	 0.147158432	 1.000000000
 0.303342009	 0.147158432	 1.000000000
 0.328675108	 0.147158432	 1.000000000
 0.050011830	 0.190893902	 1.000000000
 0.075344929	 0.190893902	 1.000000000
 0.100677927	 0.190893902	 1.000000000
 0.126010924	 0.190893902	 1.000000000
 0.151343922	 0.190893902	 1.000000000
 0.176676920	 0.190893902	 1.000000000
 0.202010019	 0.190893902	 1.000000000
 0.227343016	 0.190893902	 1.000000000
 0.252676014	 0.190893902	 1.000000000
 0.278009011	 0.190893902	 1.000000000
 0.303342009	 0.190893902	 1.000000000
 0.328675108	 0.190893902	 1.000000000
 0.050011830	 0.234629372	 1.000000000
 0.075344929	 0.234629372	 1.000000000
 0.100677927	 0.234629372	 1.000000000
 0.126010924	 0.234629372	 1.000000000
 0.151343922	 0.234629372	 1.000000000
 0.176676920	 0.234629372	 1.000000000
 0.202010019	 0.234629372	 1.000000000
 0.227343016	 0.234629372	 1.000000000
 0.252676014	 0.234629372	 1.000000000
 0.278009011	 0.234629372	 1.000000000
 0.303342009	 0.234629372	 1.000000000
 0.328675108	 0.234629372	 1.000000000
 0.050011830	 0.278364843	 1.000000000
 0.075344929	 0.278364843	 1.000000000
 0.100677927	 0.278364843	 1.000000000
 0.126010924	 0.278364843	 1.000000000
 0.151343922	 0.278364843	 1.000000000
 0.176676920	 0.278364843	 1.000000000
 0.202010019	 0.278364843	 1.000000000
 0.227343016	 0.278364843	 1.000000000
 0.252676014	 0.278364843	 1.000000000
 0.278009011	 0.278364843	 1.000000000
 0.303342009	 0.278364843	 1.000000000
 0.328675108	 0.278364843	 1.000000000
 0.050011830	 0.322100313	 1.000000000
 0.075344929	 0.322100313	 1.000000000
 0.100677927	 0.322100313	 1.000000000
 0.126010924	 0.322100313	 1.000000000
 0.151343922	 0.322100313	 1.000000000
 0.176676920	 0.322100313	 1.000000000
 0.202010019	 0.322100313	 1.000000000
 0.227343016	 0.322100313	 1.000000000
 0.252676014	 0.322100313	 1.000000000
 0.278009011	 0.322100313	 1.000000000
 0.303342009	 0.322100313	 1.000000000
 0.328675108	 0.322100313	 1.000000000
 0.062678380	 0.387703417	 1.000000000
 0.088011377	 0.387703417	 1.000000000
 0.113344375	 0.387703417	 1.000000000
 0.138677474	 0.387703417	 1.000000000
 0.164010471	 0.387703417	 1.000000000
 0.189343469	 0.387703417	 1.000000000
 0.214676467	 0.387703417	 1.000000000
 0.240009464	 0.387703417	 1.000000000
 0.265342563	 0.387703417	 1.000000000
 0.290675561	 0.387703417	 1.000000000
 0.316008558	 0.387703417	 1.000000000
 0.341341556	 0.387703417	 1.000000000
 0.062678380	 0.431438887	 1.000000000
 0.088011377	 0.431438887	 1.000000000
 0.113344375	 0.431438887	 1.000000000
 0.138677474	 0.431438887	 1.000000000
 0.164010471	 0.431438887	 1.000000000
 0.189343469	 0.431438887	 1.000000000
 0.214676467	 0.431438887	 1.000000000
 0.240009464	 0.431438887	 1.000000000
 0.265342563	 0.431438887	 1.000000000
 0.290675561	 0.431438887	 1.000000000
 0.316008558	 0.431438887	 1.000000000
 0.341341556	 0.431438887	 1.000000000
 0.062678380	 0.475174358	 1.000000000
 0.088011377	 0.475174358	 1.000000000
 0.113344375	 0.475174358	 1.000000000
 0.138677474	 0.475174358	 1.000000000
 0.164010471	 0.475174358	 1.000000000
 0.189343469	 0.475174358	 1.000000000
 0.214676467	 0.475174358	 1.000000000
 0.240009464	 0.475174358	 1.000000000
 0.265342563	 0.475174358	 1.000000000
 0.290675561	 0.475174358	 1.000000000
 0.316008558	 0.475174358	 1.000000000
 0.341341556	 0.475174358	 1.000000000
 0.062678380	 0.518909828	 1.000000000
 0.088011377	 0.518909828	 1.000000000
 0.113344375	 0.518909828	 1.000000000
 0.138677474	 0.518909828	 1.000000000
 0.164010471	 0.518909828	 1.000000000
 0.189343469	 0.518909828	 1.000000000
 0.214676467	 0.518909828	 1.000000000
 0.240009464	 0.518909828	 1.000000000
 0.265342563	 0.518909828	 1.000000000
 0.290675561	 0.518909828	 1.000000000
 0.316008558	 0.518909828	 1.000000000
 0.341341556	 0.518909828	 1.000000000
 0.062678380	 0.562645298	 1.000000000
 0.088011377	 0.562645298	 1.000000000
 0.113344375	 0.562645298	 1.000000000
 0.138677474	 0.562645298	 1.000000000
 0.164010471	 0.562645298	 1.000000000
 0.189343469	 0.562645298	 1.000000000
 0.214676467	 0.562645298	 1.000000000
 0.240009464	 0.562645298	 1.000000000
 0.265342563	 0.562645298	 1.000000000
 0.290675561	 0.562645298	 1.000000000
 0.316008558	 0.562645298	 1.000000000
 0.341341556	 0.562645298	 1.000000000
 0.062678380	 0.606380768	 1.000000000
 0.088011377	 0.606380768	 1.000000000
 0.113344375	 0.606380768	 1.000000000
 0.138677474	 0.606380768	 1.000000000
 0.164010471	 0.606380768	 1.000000000
 0.189343469	 0.606380768	 1.000000000
 0.214676467	 0.606380768	 1.000000000
 0.240009464	 0.606380768	 1.000000000
 0.265342563	 0.606380768	 1.000000000
 0.290675561	 0.606380768	 1.000000000
 0.316008558	 0.606380768	 1.000000000
 0.341341556	 0.606380768	 1.000000000
 0.062678380	 0.650116238	 1.000000000
 0.088011377	 0.650116238	 1.000000000
 0.113344375	 0.650116238	 1.000000000
 0.138677474	 0.650116238	 1.000000000
 0.164010471	 0.650116238	 1.000000000
 0.189343469	 0.650116238	 1.000000000
 0.214676467	 0.650116238	 1.000000000
 0.240009464	 0.650116238	 1.000000000
 0.265342563	 0.650116238	 1.000000000
 0.290675561	 0.650116238	 1.000000000
 0.316008558	 0.650116238	 1.000000000
 0.341341556	 0.650116238	 1.000000000
 0.050011830	 0.365835783	 1.000000000
 0.075344929	 0.365835783	 1.000000000
 0.100677927	 0.365835783	 1.000000000
 0.126010924	 0.365835783	 1.000000000
 0.151343922	 0.365835783	 1.000000000
 0.176676920	 0.365835783	 1.000000000
 0.202010019	 0.365835783	 1.000000000
 0.227343016	 0.365835783	 1.000000000
 0.252676014	 0.365835783	 1.000000000
 0.278009011	 0.365835783	 1.000000000
 0.303342009	 0.365835783	 1.000000000
 0.328675108	 0.365835783	 1.000000000
 0.050011830	 0.409571253	 1.000000000
 0.075344929	 0.409571253	 1.000000000
 0.100677927	 0.409571253	 1.000000000
 0.126010924	 0.409571253	 1.000000000
 0.151343922	 0.409571253	 1.000000000
 0.176676920	 0.409571253	 1.000000000
 0.202010019	 0.409571253	 1.000000000
 0.227343016	 0.409571253	 1.000000000
 0.252676014	 0.409571253	 1.000000000
 0.278009011	 0.409571253	 1.000000000
 0.303342009	 0.409571253	 1.000000000
 0.328675108	 0.409571253	 1.000000000
 0.050011830	 0.453306723	 1.000000000
 0.075344929	 0.453306723	 1.000000000
 0.100677927	 0.453306723	 1.000000000
 0.126010924	 0.453306723	 1.000000000
 0.151343922	 0.453306723	 1.000000000
 0.176676920	 0.453306723	 1.000000000
 0.202010019	 0.453306723	 1.000000000
 0.227343016	 0.453306723	 1.000000000
 0.252676014	 0.453306723	 1.000000000
 0.278009011	 0.453306723	 1.000000000
 0.303342009	 0.453306723	 1.000000000
 0.328675108	 0.453306723	 1.000000000
 0.050011830	 0.497042194	 1.000000000
 0.075344929	 0.497042194	 1.000000000
 0.100677927	 0.497042194	 1.000000000
 0.126010924	 0.497042194	 1.000000000
 0.151343922	 0.497042194	 1.000000000
 0.176676920	 0.497042194	 1.000000000
 0.202010019	 0.497042194	 1.000000000
 0.227343016	 0.497042194	 1.000000000
 0.252676014	 0.497042194	 1.000000000
 0.278009011	 0.497042194	 1.000000000
 0.303342009	 0.497042194	 1.000000000
 0.328675108	 0.497042194	 1.000000000
 0.050011830	 0.540777664	 1.000000000
 0.075344929	 0.540777664	 1.000000000
 0.100677927	 0.540777664	 1.000000000
 0.126010924	 0.540777664	 1.000000000
 0.151343922	 0.540777664	 1.000000000
 0.176676920	 0.540777664	 1.000000000
 0.202010019	 0.540777664	 1.000000000
 0.227343016	 0.540777664	 1.000000000
 0.252676014	 0.540777664	 1.000000000
 0.278009011	 0.540777664	 1.000000000
 0.303342009	 0.540777664	 1.000000000
 0.328675108	 0.540777664	 1.000000000
 0.050011830	 0.584513134	 1.000000000
 0.075344929	 0.584513134	 1.000000000
 0.100677927	 0.584513134	 1.000000000
 0.126010924	 0.584513134	 1.000000000
 0.151343922	 0.584513134	 1.000000000
 0.176676920	 0.584513134	 1.000000000
 0.202010019	 0.584513134	 1.000000000
 0.227343016	 0.584513134	 1.000000000
 0.252676014	 0.584513134	 1.000000000
 0.278009011	 0.584513134	 1.000000000
 0.303342009	 0.584513134	 1.000000000
 0.328675108	 0.584513134	 1.000000000
 0.050011830	 0.628248604	 1.000000000
 0.075344929	 0.628248604	 1.000000000
 0.100677927	 0.628248604	 1.000000000
 0.126010924	 0.628248604	 1.000000000
 0.151343922	 0.628248604	 1.000000000
 0.176676920	 0.628248604	 1.000000000
 0.202010019	 0.628248604	 1.000000000
 0.227343016	 0.628248604	 1.000000000
 0.252676014	 0.628248604	 1.000000000
 0.278009011	 0.628248604	 1.000000000
 0.303342009	 0.628248604	 1.000000000
 0.328675108	 0.628248604	 1.000000000
 0.062678380	 0.693851709	 1.000000000
 0.088011377	 0.693851709	 1.000000000
 0.113344375	 0.693851709	 1.000000000
 0.138677474	 0.693851709	 1.000000000
 0.164010471	 0.693851709	 1.000000000
 0.189343469	 0.693851709	 1.000000000
 0.214676467	 0.693851709	 1.000000000
 0.240009464	 0.693851709	 1.000000000
 0.265342563	 0.693851709	 1.000000000
 0.290675561	 0.693851709	 1.000000000
 0.316008558	 0.693851709	 1.000000000
 0.341341556	 0.693851709	 1.000000000
 0.062678380	 0.737587179	 1.000000000
 0.088011377	 0.737587179	 1.000000000
 0.113344375	 0.737587179	 1.000000000
 0.138677474	 0.737587179	 1.000000000
 0.164010471	 0.737587179	 1.000000000
 0.189343469	 0.737587179	 1.000000000
 0.214676467	 0.737587179	 1.000000000
 0.240009464	 0.737587179	 1.000000000
 0.265342563	 0.737587179	 1.000000000
 0.290675561	 0.737587179	 1.000000000
 0.316008558	 0.737587179	 1.000000000
 0.341341556	 0.737587179	 1.000000000
 0.062678380	 0.781322649	 1.000000000
 0.088011377	 0.781322649	 1.000000000
 0.113344375	 0.781322649	 1.000000000
 0.138677474	 0.781322649	 1.000000000
 0.164010471	 0.781322649	 1.000000000
 0.189343469	 0.781322649	 1.000000000
 0.214676467	 0.781322649	 1.000000000
 0.240009464	 0.781322649	 1.000000000
 0.265342563	 0.781322649	 1.000000000
 0.290675561	 0.781322649	 1.000000000
 0.316008558	 0.781322649	 1.000000000
 0.341341556	 0.781322649	 1.000000000
 0.062678380	 0.825058119	 1.000000000
 0.088011377	 0.825058119	 1.000000000
 0.113344375	 0.825058119	 1.000000000
 0.138677474	 0.825058119	 1.000000000
 0.164010471	 0.825058119	 1.000000000
 0.189343469	 0.825058119	 1.000000000
 0.214676467	 0.825058119	 1.000000000
 0.240009464	 0.825058119	 1.000000000
 0.265342563	 0.825058119	 1.000000000
 0.290675561	 0.825058119	 1.000000000
 0.316008558	 0.825058119	 1.000000000
 0.341341556	 0.825058119	 1.000000000
 0.062678380	 0.868793589	 1.000000000
 0.088011377	 0.868793589	 1.000000000
 0.113344375	 0.868793589	 1.000000000
 0.138677474	 0.868793589	 1.000000000
 0.164010471	 0.868793589	 1.000000000
 0.189343469	 0.868793589	 1.000000000
 0.214676467	 0.868793589	 1.000000000
 0.240009464	 0.868793589	 1.000000000
 0.265342563	 0.868793589	 1.000000000
 0.290675561	 0.868793589	 1.000000000
 0.316008558	 0.868793589	 1.000000000
 0.341341556	 0.868793589	 1.000000000
 0.062678380	 0.912529060	 1.000000000
 0.088011377	 0.912529060	 1.000000000
 0.113344375	 0.912529060	 1.000000000
 0.138677474	 0.912529060	 1.000000000
 0.164010471	 0.912529060	 1.000000000
 0.189343469	 0.912529060	 1.000000000
 0.214676467	 0.912529060	 1.000000000
 0.240009464	 0.912529060	 1.000000000
 0.265342563	 0.912529060	 1.000000000
 0.290675561	 0.912529060	 1.000000000
 0.316008558	 0.912529060	 1.000000000
 0.341341556	 0.912529060	 1.000000000
 0.062678380	 0.956264530	 1.000000000
 0.088011377	 0.956264530	 1.000000000
 0.113344375	 0.956264530	 1.000000000
 0.138677474	 0.956264530	 1.000000000
 0.164010471	 0.956264530	 1.000000000
 0.189343469	 0.956264530	 1.000000000
 0.214676467	 0.956264530	 1.000000000
 0.240009464	 0.956264530	 1.000000000
 0.265342563	 0.956264530	 1.000000000
 0.290675561	 0.956264530	 1.000000000
 0.316008558	 0.956264530	 1.000000000
 0.341341556	 0.956264530	 1.000000000
 0.050011830	 0.671984074	 1.000000000
 0.075344929	 0.671984074	 1.000000000
 0.100677927	 0.671984074	 1.000000000
 0.126010924	 0.671984074	 1.000000000
 0.151343922	 0.671984074	 1.000000000
 0.176676920	 0.671984074	 1.000000000
 0.202010019	 0.671984074	 1.000000000
 0.227343016	 0.671984074	 1.000000000
 0.252676014	 0.671984074	 1.000000000
 0.278009011	 0.671984074	 1.000000000
 0.303342009	 0.671984074	 1.000000000
 0.328675108	 0.671984074	 1.000000000
 0.050011830	 0.715719545	 1.000000000
 0.075344929	 0.715719545	 1.000000000
 0.100677927	 0.715719545	 1.000000000
 0.126010924	 0.715719545	 1.000000000
 0.151343922	 0.715719545	 1.000000000
 0.176676920	 0.715719545	 1.000000000
 0.202010019	 0.715719545	 1.000000000
 0.227343016	 0.715719545	 1.000000000
 0.252676014	 0.715719545	 1.000000000
 0.278009011	 0.715719545	 1.000000000
 0.303342009	 0.715719545	 1.000000000
 0.328675108	 0.715719545	 1.000000000
 0.050011830	 0.759455015	 1.000000000
 0.075344929	 0.759455015	 1.000000000
 0.100677927	 0.759455015	 1.000000000
 0.126010924	 0.759455015	 1.000000000
 0.151343922	 0.759455015	 1.000000000
 0.176676920	 0.759455015	 1.000000000
 0.202010019	 0.759455015	 1.000000000
 0.227343016	 0.759455015	 1.000000000
 0.252676014	 0.759455015	 1.000000000
 0.278009011	 0.759455015	 1.000000000
 0.303342009	 0.759455015	 1.000000000
 0.328675108	 0.759455015	 1.000000000
 0.050011830	 0.803190485	 1.000000000
 0.075344929	 0.803190485	 1.000000000
 0.100677927	 0.803190485	 1.000000000
 0.126010924	 0.803190485	 1.000000000
 0.151343922	 0.803190485	 1.000000000
 0.176676920	 0.803190485	 1.000000000
 0.202010019	 0.803190485	 1.000000000
 0.227343016	 0.803190485	 1.000000000
 0.252676014	 0.803190485	 1.000000000
 0.278009011	 0.803190485	 1.000000000
 0.303342009	 0.803190485	 1.000000000
 0.328675108	 0.803190485	 1.000000000
 0.050011830	 0.846925955	 1.000000000
 0.075344929	 0.846925955	 1.000000000
 0.100677927	 0.846925955	 1.000000000
 0.126010924	 0.846925955	 1.000000000
 0.151343922	 0.846925955	 1.000000000
 0.176676920	 0.846925955	 1.000000000
 0.202010019	 0.846925955	 1.000000000
 0.227343016	 0.846925955	 1.000000000
 0.252676014	 0.846925955	 1.000000000
 0.278009011	 0.846925955	 1.000000000
 0.303342009	 0.846925955	 1.000000000
 0.328675108	 0.846925955	 1.000000000
 0.050011830	 0.890661425	 1.000000000
 0.075344929	 0.890661425	 1.000000000
 0.100677927	 0.890661425	 1.000000000
 0.126010924	 0.890661425	 1.000000000
 0.151343922	 0.890661425	 1.000000000
 0.176676920	 0.890661425	 1.000000000
 0.202010019	 0.890661425	 1.000000000
 0.227343016	 0.890661425	 1.000000000
 0.252676014	 0.890661425	 1.000000000
 0.278009011	 0.890661425	 1.000000000
 0.303342009	 0.890661425	 1.000000000
 0.328675108	 0.890661425	 1.000000000
 0.050011830	 0.934396896	 1.000000000
 0.075344929	 0.934396896	 1.000000000
 0.100677927	 0.934396896	 1.000000000
 0.126010924	 0.934396896	 1.000000000
 0.151343922	 0.934396896	 1.000000000
 0.176676920	 0.934396896	 1.000000000
 0.202010019	 0.934396896	 1.000000000
 0.227343016	 0.934396896	 1.000000000
 0.252676014	 0.934396896	 1.000000000
 0.278009011	 0.934396896	 1.000000000
 0.303342009	 0.934396896	 1.000000000
 0.328675108	 0.934396896	 1.000000000
 0.062678380	 1.000000000	 1.000000000
 0.088011377	 1.000000000	 1.000000000
 0.113344375	 1.000000000	 1.000000000
 0.138677474	 1.000000000	 1.000000000
 0.164010471	 1.000000000	 1.000000000
 0.189343469	 1.000000000	 1.000000000
 0.214676467	 1.000000000	 1.000000000
 0.240009464	 1.000000000	 1.000000000
 0.265342563	 1.000000000	 1.000000000
 0.290675561	 1.000000000	 1.000000000
 0.316008558	 1.000000000	 1.000000000
 0.341341556	 1.000000000	 1.000000000
 0.050011830	 0.978132366	 1.000000000
 0.075344929	 0.978132366	 1.000000000
 0.100677927	 0.978132366	 1.000000000
 0.126010924	 0.978132366	 1.000000000
 0.151343922	 0.978132366	 1.000000000
 0.176676920	 0.978132366	 1.000000000
 0.202010019	 0.978132366	 1.000000000
 0.227343016	 0.978132366	 1.000000000
 0.252676014	 0.978132366	 1.000000000
 0.278009011	 0.978132366	 1.000000000
 0.303342009	 0.978132366	 1.000000000
 0.328675108	 0.978132366	 1.000000000
 0.366674554	 0.037819656	 1.000000000
 0.392007652	 0.037819656	 1.000000000
 0.417340650	 0.037819656	 1.000000000
 0.442673648	 0.037819656	 1.000000000
 0.468006645	 0.037819656	 1.000000000
 0.493339643	 0.037819656	 1.000000000
 0.518672742	 0.037819656	 1.000000000
 0.544005739	 0.037819656	 1.000000000
 0.569338737	 0.037819656	 1.000000000
 0.594671735	 0.037819656	 1.000000000
 0.620004732	 0.037819656	 1.000000000
 0.645337831	 0.037819656	 1.000000000
 0.354008105	 0.015952021	 1.000000000
 0.379341103	 0.015952021	 1.000000000
 0.404674101	 0.015952021	 1.000000000
 0.430007098	 0.015952021	 1.000000000
 0.455340197	 0.015952021	 1.000000000
 0.480673195	 0.015952021	 1.000000000
 0.506006192	 0.015952021	 1.000000000
 0.531339190	 0.015952021	 1.000000000
 0.556672188	 0.015952021	 1.000000000
 0.582005286	 0.015952021	 1.000000000
 0.607338284	 0.015952021	 1.000000000
 0.632671282	 0.015952021	 1.000000000
 0.366674554	 0.081555126	 1.000000000
 0.392007652	 0.081555126	 1.000000000
 0.417340650	 0.081555126	 1.000000000
 0.442673648	 0.081555126	 1.000000000
 0.468006645	 0.081555126	 1.000000000
 0.493339643	 0.081555126	 1.000000000
 0.518672742	 0.081555126	 1.000000000
 0.544005739	 0.081555126	 1.000000000
 0.569338737	 0.081555126	 1.000000000
 0.594671735	 0.081555126	 1.000000000
 0.620004732	 0.081555126	 1.000000000
 0.645337831	 0.081555126	 1.000000000
 0.366674554	 0.125290596	 1.000000000
 0.392007652	 0.125290596	 1.000000000
 0.417340650	 0.125290596	 1.000000000
 0.442673648	 0.125290596	 1.000000000
 0.468006645	 0.125290596	 1.000000000
 0.493339643	 0.125290596	 1.000000000
 0.518672742	 0.125290596	 1.000000000
 0.544005739	 0.125290596	 1.000000000
 0.569338737	 0.125290596	 1.000000000
 0.594671735	 0.125290596	 1.000000000
 0.620004732	 0.125290596	 1.000000000
 0.645337831	 0.125290596	 1.000000000
 0.366674554	 0.169026066	 1.000000000
 0.392007652	 0.169026066	 1.000000000
 0.417340650	 0.169026066	 1.000000000
 0.442673648	 0.169026066	 1.000000000
 0.468006645	 0.169026066	 1.000000000
 0.493339643	 0.169026066	 1.000000000
 0.518672742	 0.169026066	 1.000000000
 0.544005739	 0.169026066	 1.000000000
 0.569338737	 0.169026066	 1.000000000
 0.594671735	 0.169026066	 1.000000000
 0.620004732	 0.169026066	 1.000000000
 0.645337831	 0.169026066	 1.000000000
 0.366674554	 0.212761536	 1.000000000
 0.392007652	 0.212761536	 1.000000000
 0.417340650	 0.212761536	 1.000000000
 0.442673648	 0.212761536	 1.000000000
 0.468006645	 0.212761536	 1.000000000
 0.493339643	 0.212761536	 1.000000000
 0.518672742	 0.212761536	 1.000000000
 0.544005739	 0.212761536	 1.000000000
 0.569338737	 0.212761536	 1.000000000
 0.594671735	 0.212761536	 1.000000000
 0.620004732	 0.212761536	 1.000000000
 0.645337831	 0.212761536	 1.000000000
 0.366674554	 0.256497007	 1.000000000
 0.392007652	 0.256497007	 1.000000000
 0.417340650	 0.256497007	 1.000000000
 0.442673648	 0.256497007	 1.000000000
 0.468006645	 0.256497007	 1.000000000
 0.493339643	 0.256497007	 1.000000000
 0.518672742	 0.256497007	 1.000000000
 0.544005739	 0.256497007	 1.000000000
 0.569338737	 0.256497007	 1.000000000
 0.594671735	 0.256497007	 1.000000000
 0.620004732	 0.256497007	 1.000000000
 0.645337831	 0.256497007	 1.000000000
 0.366674554	 0.300232477	 1.000000000
 0.392007652	 0.300232477	 1.000000000
 0.417340650	 0.300232477	 1.000000000
 0.442673648	 0.300232477	 1.000000000
 0.468006645	 0.300232477	 1.000000000
 0.493339643	 0.300232477	 1.000000000
 0.518672742	 0.300232477	 1.000000000
 0.544005739	 0.300232477	 1.000000000
 0.569338737	 0.300232477	 1.000000000
 0.594671735	 0.300232477	 1.000000000
 0.620004732	 0.300232477	 1.000000000
 0.645337831	 0.300232477	 1.000000000
 0.366674554	 0.343967947	 1.000000000
 0.392007652	 0.343967947	 1.000000000
 0.417340650	 0.343967947	 1.000000000
 0.442673648	 0.343967947	 1.000000000
 0.468006645	 0.343967947	 1.000000000
 0.493339643	 0.343967947	 1.000000000
 0.518672742	 0.343967947	 1.000000000
 0.544005739	 0.343967947	 1.000000000
 0.569338737	 0.343967947	 1.000000000
 0.594671735	 0.343967947	 1.000000000
 0.620004732	 0.343967947	 1.000000000
 0.645337831	 0.343967947	 1.000000000
 0.354008105	 0.059687492	 1.000000000
 0.379341103	 0.059687492	 1.000000000
 0.404674101	 0.059687492	 1.000000000
 0.430007098	 0.059687492	 1.000000000
 0.455340197	 0.059687492	 1.000000000
 0.480673195	 0.059687492	 1.000000000
 0.506006192	 0.059687492	 1.000000000
 0.531339190	 0.059687492	 1.000000000
 0.556672188	 0.059687492	 1.000000000
 0.582005286	 0.059687492	 1.000000000
 0.607338284	 0.059687492	 1.000000000
 0.632671282	 0.059687492	 1.000000000
 0.354008105	 0.103422962	 1.000000000
 0.379341103	 0.103422962	 1.000000000
 0.404674101	 0.103422962	 1.000000000
 0.430007098	 0.103422962	 1.000000000
 0.455340197	 0.103422962	 1.000000000
 0.480673195	 0.103422962	 1.000000000
 0.506006192	 0.103422962	 1.000000000
 0.531339190	 0.103422962	 1.000000000
 0.556672188	 0.103422962	 1.000000000
 0.582005286	 0.103422962	 1.000000000
 0.607338284	 0.103422962	 1.000000000
 0.632671282	 0.103422962	 1.000000000
 0.354008105	 0.147158432	 1.000000000
 0.379341103	 0.147158432	 1.000000000
 0.404674101	 0.147158432	 1.000000000
 0.430007098	 0.147158432	 1.000000000
 0.455340197	 0.147158432	 1.000000000
 0.480673195	 0.147158432	 1.000000000
 0.506006192	 0.147158432	 1.000000000
 0.531339190	 0.147158432	 1.000000000
 0.556672188	 0.147158432	 1.000000000
 0.582005286	 0.147158432	 1.000000000
 0.607338284	 0.147158432	 1.000000000