POSCAR
1.00000
       30.0387840271         0.0000000000         0.0000000000
        0.0000000000        30.3518619537         0.0000000000
        0.0000000000         0.0000000000         9.9995365143
B N VB
167 168 1 
Direct
0.041666667    0.119045431    0.512382312
0.125000000    0.119045431    0.515362007
0.208333349    0.119045431    0.519024464
0.291666651    0.119045431    0.523166873
0.374999984    0.119045431    0.527100857
0.458333317    0.119045431    0.529615361
0.541666714    0.119045431    0.529615360
0.625000016    0.119045431    0.527100857
0.708333381    0.119045431    0.523166872
0.791666683    0.119045431    0.519024462
0.874999984    0.119045431    0.515362008
0.958333349    0.119045431    0.512382312
0.041666667    0.261902571    0.516139319
0.125000000    0.261902571    0.521600239
0.208333349    0.261902571    0.529617324
0.291666651    0.261902571    0.541042132
0.374999984    0.261902571    0.555250678
0.458333317    0.261902571    0.566816403
0.541666714    0.261902571    0.566816401
0.625000016    0.261902571    0.555250678
0.708333381    0.261902571    0.541042127
0.791666683    0.261902571    0.529617320
0.874999984    0.261902571    0.521600240
0.958333349    0.261902571    0.516139318
0.041666667    0.404759734    0.519025682
0.125000000    0.404759734    0.527103331
0.208333349    0.404759734    0.541044042
0.291666651    0.404759734    0.566821446
0.374999984    0.404759734    0.614950790
0.458333317    0.404759734    0.679648222
0.541666714    0.404759734    0.679648203
0.625000016    0.404759734    0.614950790
0.708333381    0.404759734    0.566821432
0.791666683    0.404759734    0.541044035
0.874999984    0.404759734    0.527103333
0.958333349    0.404759734    0.519025681
0.041666667    0.547616850    0.519025690
0.125000000    0.547616850    0.527103348
0.208333349    0.547616850    0.541044081
0.291666651    0.547616850    0.566821547
0.374999984    0.547616850    0.614951090
0.458333317    0.547616850    0.679648954
0.541666714    0.547616850    0.679648935
0.625000016    0.547616850    0.614951090
0.708333381    0.547616850    0.566821534
0.791666683    0.547616850    0.541044074
0.874999984    0.547616850    0.527103350
0.958333349    0.547616850    0.519025689
0.041666667    0.690474028    0.516139336
0.125000000    0.690474028    0.521600270
0.208333349    0.690474028    0.529617383
0.291666651    0.690474028    0.541042244
0.374999984    0.690474028    0.555250881
0.458333317    0.690474028    0.566816701
0.541666714    0.690474028    0.566816698
0.625000016    0.690474028    0.555250881
0.708333381    0.690474028    0.541042239
0.791666683    0.690474028    0.529617379
0.874999984    0.690474028    0.521600271
0.958333349    0.690474028    0.516139335
0.041666667    0.833331144    0.512382330
0.125000000    0.833331144    0.515362034
0.208333349    0.833331144    0.519024506
0.291666651    0.833331144    0.523166935
0.374999984    0.833331144    0.527100942
0.458333317    0.833331144    0.529615462
0.541666714    0.833331144    0.529615461
0.625000016    0.833331144    0.527100942
0.708333381    0.833331144    0.523166934
0.791666683    0.833331144    0.519024504
0.874999984    0.833331144    0.515362035
0.958333349    0.833331144    0.512382329
0.041666667    0.976188323    0.509177679
0.125000000    0.976188323    0.510718652
0.208333349    0.976188323    0.512381823
0.291666651    0.976188323    0.514012524
0.374999984    0.976188323    0.515361254
0.458333317    0.976188323    0.516137905
0.541666714    0.976188323    0.516137905
0.625000016    0.976188323    0.515361254
0.708333381    0.976188323    0.514012523
0.791666683    0.976188323    0.512381823
0.874999984    0.976188323    0.510718653
0.958333349    0.976188323    0.509177679
0.000000000    0.047617187    0.509737818
0.083333333    0.047617187    0.511701211
0.166666667    0.047617187    0.514012862
0.250000000    0.047617187    0.516556917
0.333333333    0.047617187    0.519023932
0.416666667    0.047617187    0.520891674
0.500000000    0.047617187    0.521598510
0.583333302    0.047617187    0.520891674
0.666666667    0.047617187    0.519023932
0.749999968    0.047617187    0.516556918
0.833333333    0.047617187    0.514012862
0.916666698    0.047617187    0.511701210
0.000000000    0.190474327    0.512627444
0.083333333    0.190474327    0.516139075
0.166666667    0.190474327    0.520892882
0.250000000    0.190474327    0.527101812
0.333333333    0.190474327    0.534404990
0.416666667    0.190474327    0.541040556
0.500000000    0.190474327    0.543860281
0.583333302    0.190474327    0.541040558
0.666666667    0.190474327    0.534404990
0.749999968    0.190474327    0.527101815
0.833333333    0.190474327    0.520892882
0.916666698    0.190474327    0.516139073
0.000000000    0.333331490    0.515362706
0.083333333    0.333331490    0.520893608
0.166666667    0.333331490    0.529617959
0.250000000    0.333331490    0.543863481
0.333333333    0.333331490    0.566819647
0.416666667    0.333331490    0.597406567
0.500000000    0.333331490    0.614945458
0.583333302    0.333331490    0.597406578
0.666666667    0.333331490    0.566819647
0.749999968    0.333331490    0.543863488
0.833333333    0.333331490    0.529617959
0.916666698    0.333331490    0.520893605
0.000000000    0.476188637    0.516558283
0.083333333    0.476188637    0.523168761
0.166666667    0.476188637    0.534407614
0.250000000    0.476188637    0.555254588
0.333333333    0.476188637    0.597411820
0.416666667    0.476188637    0.679653049
0.583333302    0.476188637    0.679653087
0.666666667    0.476188637    0.597411820
0.749999968    0.476188637    0.555254599
0.833333333    0.476188637    0.534407614
0.916666698    0.476188637    0.523168758
0.000000000    0.619045785    0.515362706
0.083333333    0.619045785    0.520893608
0.166666667    0.619045785    0.529617959
0.250000000    0.619045785    0.543863481
0.333333333    0.619045785    0.566819646
0.416666667    0.619045785    0.597406566
0.500000000    0.619045785    0.614945457
0.583333302    0.619045785    0.597406577
0.666666667    0.619045785    0.566819646
0.749999968    0.619045785    0.543863488
0.833333333    0.619045785    0.529617959
0.916666698    0.619045785    0.520893605
0.000000000    0.761902901    0.512627445
0.083333333    0.761902901    0.516139076
0.166666667    0.761902901    0.520892884
0.250000000    0.761902901    0.527101817
0.333333333    0.761902901    0.534404997
0.416666667    0.761902901    0.541040567
0.500000000    0.761902901    0.543860293
0.583333302    0.761902901    0.541040569
0.666666667    0.761902901    0.534404997
0.749999968    0.761902901    0.527101819
0.833333333    0.761902901    0.520892884
0.916666698    0.761902901    0.516139075
0.000000000    0.904760079    0.509737818
0.083333333    0.904760079    0.511701211
0.166666667    0.904760079    0.514012862
0.250000000    0.904760079    0.516556917
0.333333333    0.904760079    0.519023932
0.416666667    0.904760079    0.520891674
0.500000000    0.904760079    0.521598511
0.583333302    0.904760079    0.520891675
0.666666667    0.904760079    0.519023932
0.749999968    0.904760079    0.516556918
0.833333333    0.904760079    0.514012862
0.916666698    0.904760079    0.511701210
0.041666667    0.023811498    0.510150746
0.125000000    0.023811498    0.512069973
0.208333349    0.023811498    0.514221016
0.291666651    0.023811498    0.516415065
0.374999984    0.023811498    0.518297000
0.458333317    0.023811498    0.519409627
0.541666714    0.023811498    0.519409626
0.625000016    0.023811498    0.518297000
0.708333381    0.023811498    0.516415065
0.791666683    0.023811498    0.514221015
0.874999984    0.023811498    0.512069973
0.958333349    0.023811498    0.510150746
0.041666667    0.166668651    0.513614944
0.125000000    0.166668651    0.517305827
0.208333349    0.166668651    0.522098353
0.291666651    0.166668651    0.527891338
0.374999984    0.166668651    0.533798005
0.458333317    0.166668651    0.537800603
0.541666714    0.166668651    0.537800602
0.625000016    0.166668651    0.533798005
0.708333381    0.166668651    0.527891335
0.791666683    0.166668651    0.522098351
0.874999984    0.166668651    0.517305828
0.958333349    0.166668651    0.513614943
0.041666667    0.309525783    0.517306304
0.125000000    0.309525783    0.523742980
0.208333349    0.309525783    0.533799827
0.291666651    0.309525783    0.549536503
0.374999984    0.309525783    0.571832616
0.458333317    0.309525783    0.592692906
0.541666714    0.309525783    0.592692901
0.625000016    0.309525783    0.571832616
0.708333381    0.309525783    0.549536496
0.791666683    0.309525783    0.533799823
0.874999984    0.309525783    0.523742982
0.958333349    0.309525783    0.517306303
0.041666667    0.452382930    0.519411428
0.125000000    0.452382930    0.527892956
0.208333349    0.452382930    0.542882414
0.291666651    0.452382930    0.571835126
0.374999984    0.452382930    0.630635523
0.625000016    0.452382930    0.630635523
0.708333381    0.452382930    0.571835110
0.791666683    0.452382930    0.542882406
0.874999984    0.452382930    0.527892958
0.958333349    0.452382930    0.519411427
0.041666667    0.595240141    0.518298393
0.125000000    0.595240141    0.525650951
0.208333349    0.595240141    0.537802686
0.291666651    0.595240141    0.558636135
0.374999984    0.595240141    0.592691725
0.458333317    0.595240141    0.630624889
0.541666714    0.595240141    0.630624879
0.625000016    0.595240141    0.592691725
0.708333381    0.595240141    0.558636124
0.791666683    0.595240141    0.537802680
0.874999984    0.595240141    0.525650953
0.958333349    0.595240141    0.518298392
0.041666667    0.738097256    0.514884696
0.125000000    0.738097256    0.519410542
0.208333349    0.738097256    0.525649816
0.291666651    0.738097256    0.533797693
0.374999984    0.738097256    0.542878084
0.458333317    0.738097256    0.549531931
0.541666714    0.738097256    0.549531929
0.625000016    0.738097256    0.542878084
0.708333381    0.738097256    0.533797690
0.791666683    0.738097256    0.525649813
0.874999984    0.738097256    0.519410543
0.958333349    0.738097256    0.514884696
0.041666667    0.880954372    0.511221266
0.125000000    0.880954372    0.513614369
0.208333349    0.880954372    0.516414958
0.291666651    0.880954372    0.519409475
0.374999984    0.880954372    0.522096836
0.458333317    0.880954372    0.523740333
0.541666714    0.880954372    0.523740333
0.625000016    0.880954372    0.522096836
0.708333381    0.880954372    0.519409474
0.791666683    0.880954372    0.516414957
0.874999984    0.880954372    0.513614369
0.958333349    0.880954372    0.511221265
0.000000000    0.095240172    0.510659389
0.083333333    0.095240172    0.513057756
0.166666667    0.095240172    0.516003941
0.250000000    0.095240172    0.519410194
0.333333333    0.095240172    0.522890121
0.416666667    0.095240172    0.525649207
0.500000000    0.095240172    0.526722899
0.583333302    0.095240172    0.525649208
0.666666667    0.095240172    0.522890121
0.749999968    0.095240172    0.519410196
0.833333333    0.095240172    0.516003941
0.916666698    0.095240172    0.513057755
0.000000000    0.238097304    0.513615119
0.083333333    0.238097304    0.517788343
0.166666667    0.238097304    0.523742615
0.250000000    0.238097304    0.532099565
0.333333333    0.238097304    0.542880322
0.416666667    0.238097304    0.553701914
0.500000000    0.238097304    0.558634381
0.583333302    0.238097304    0.553701917
0.666666667    0.238097304    0.542880322
0.749999968    0.238097304    0.532099569
0.833333333    0.238097304    0.523742615
0.916666698    0.238097304    0.517788341
0.000000000    0.380954467    0.516004754
0.083333333    0.380954467    0.522099318
0.166666667    0.380954467    0.532100632
0.250000000    0.380954467    0.549537456
0.333333333    0.380954467    0.580942854
0.416666667    0.380954467    0.630633828
0.500000000    0.380954467    0.664243661
0.583333302    0.380954467    0.630633848
0.666666667    0.380954467    0.580942854
0.749999968    0.380954467    0.549537465
0.833333333    0.380954467    0.532100632
0.916666698    0.380954467    0.522099315
0.000000000    0.523811583    0.516416307
0.083333333    0.523811583    0.522891745
0.166666667    0.523811583    0.533800183
0.250000000    0.523811583    0.553704688
0.333333333    0.523811583    0.592695602
0.416666667    0.523811583    0.664241686
0.583333302    0.523811583    0.664241717
0.666666667    0.523811583    0.592695602
0.749999968    0.523811583    0.553704699
0.833333333    0.523811583    0.533800183
0.916666698    0.523811583    0.522891742
0.000000000    0.666668761    0.514545757
0.083333333    0.666668761    0.519410917
0.166666667    0.666668761    0.526724270
0.250000000    0.666668761    0.537801638
0.333333333    0.666668761    0.553701279
0.416666667    0.666668761    0.571828140
0.500000000    0.666668761    0.580934632
0.583333302    0.666668761    0.571828146
0.666666667    0.666668761    0.553701279
0.749999968    0.666668761    0.537801643
0.833333333    0.666668761    0.526724270
0.916666698    0.666668761    0.519410915
0.000000000    0.809525877    0.511630338
0.083333333    0.809525877    0.514545274
0.166666667    0.809525877    0.518297383
0.250000000    0.809525877    0.522889930
0.333333333    0.809525877    0.527890125
0.416666667    0.809525877    0.532096985
0.500000000    0.809525877    0.533796224
0.583333302    0.809525877    0.532096986
0.666666667    0.809525877    0.527890125
0.749999968    0.809525877    0.522889931
0.833333333    0.809525877    0.518297383
0.916666698    0.809525877    0.514545273
0.000000000    0.952383056    0.508879779
0.083333333    0.952383056    0.510483912
0.166666667    0.952383056    0.512302239
0.250000000    0.952383056    0.514220559
0.333333333    0.952383056    0.516002977
0.416666667    0.952383056    0.517304342
0.500000000    0.952383056    0.517786475
0.583333302    0.952383056    0.517304342
0.666666667    0.952383056    0.516002977
0.749999968    0.952383056    0.514220559
0.833333333    0.952383056    0.512302239
0.916666698    0.952383056    0.510483911
0.500000000    0.523811583    0.721135304
0.458333317    0.452382930    0.721143773
0.541666714    0.452382930    0.721143744
0.500000000    0.476188637    0.750011588
