POSCAR_of_example/config_deform
1.0
  100.00000	    0.00000	    0.00000
    0.00000	  100.00000	    0.00000
    0.00000	    0.00000	    9.99954
 B   N  
 1816   1817  
Direct
 0.362322240	 0.037494783	 0.509177679
 0.387354560	 0.037494783	 0.510718652
 0.412386885	 0.037494783	 0.512381823
 0.437419195	 0.037494783	 0.514012524
 0.462451515	 0.037494783	 0.515361254
 0.487483835	 0.037494783	 0.516137905
 0.512516174	 0.037494783	 0.516137905
 0.537548485	 0.037494783	 0.515361254
 0.562580814	 0.037494783	 0.514012523
 0.587613125	 0.037494783	 0.512381823
 0.612645435	 0.037494783	 0.510718653
 0.637677765	 0.037494783	 0.509177679
 0.349806080	 0.015814981	 0.509737818
 0.374838400	 0.015814981	 0.511701211
 0.399870720	 0.015814981	 0.514012862
 0.424903040	 0.015814981	 0.516556917
 0.449935360	 0.015814981	 0.519023932
 0.474967680	 0.015814981	 0.520891674
 0.500000000	 0.015814981	 0.521598511
 0.525032311	 0.015814981	 0.520891675
 0.550064640	 0.015814981	 0.519023932
 0.575096950	 0.015814981	 0.516556918
 0.600129280	 0.015814981	 0.514012862
 0.625161610	 0.015814981	 0.511701210
 0.662710080	 0.991410434	 0.500000000
 0.687742400	 0.991410434	 0.500000000
 0.712774725	 0.991410434	 0.500000000
 0.737807036	 0.991410434	 0.500000000
 0.762839355	 0.991410434	 0.500000000
 0.787871675	 0.991410434	 0.500000000
 0.812904015	 0.991410434	 0.500000000
 0.837936325	 0.991410434	 0.500000000
 0.862968655	 0.991410434	 0.500000000
 0.888000965	 0.991410434	 0.500000000
 0.913033276	 0.991410434	 0.500000000
 0.938065605	 0.991410434	 0.500000000
 0.650193920	 0.969730632	 0.500000000
 0.675226240	 0.969730632	 0.500000000
 0.700258560	 0.969730632	 0.500000000
 0.725290880	 0.969730632	 0.500000000
 0.750323200	 0.969730632	 0.500000000
 0.775355520	 0.969730632	 0.500000000
 0.800387840	 0.969730632	 0.500000000
 0.825420151	 0.969730632	 0.500000000
 0.850452480	 0.969730632	 0.500000000
 0.875484791	 0.969730632	 0.500000000
 0.900517120	 0.969730632	 0.500000000
 0.925549450	 0.969730632	 0.500000000
 0.500000000	 0.189254188	 0.750011588
 0.362322240	 0.080854576	 0.512382312
 0.387354560	 0.080854576	 0.515362007
 0.412386885	 0.080854576	 0.519024464
 0.437419195	 0.080854576	 0.523166873
 0.462451515	 0.080854576	 0.527100857
 0.487483835	 0.080854576	 0.529615361
 0.512516174	 0.080854576	 0.529615360
 0.537548485	 0.080854576	 0.527100857
 0.562580814	 0.080854576	 0.523166872
 0.587613125	 0.080854576	 0.519024462
 0.612645435	 0.080854576	 0.515362008
 0.637677765	 0.080854576	 0.512382312
 0.362322240	 0.124214377	 0.516139319
 0.387354560	 0.124214377	 0.521600239
 0.412386885	 0.124214377	 0.529617324
 0.437419195	 0.124214377	 0.541042132
 0.462451515	 0.124214377	 0.555250678
 0.487483835	 0.124214377	 0.566816403
 0.512516174	 0.124214377	 0.566816401
 0.537548485	 0.124214377	 0.555250678
 0.562580814	 0.124214377	 0.541042127
 0.587613125	 0.124214377	 0.529617320
 0.612645435	 0.124214377	 0.521600240
 0.637677765	 0.124214377	 0.516139318
 0.362322240	 0.167574186	 0.519025682
 0.387354560	 0.167574186	 0.527103331
 0.412386885	 0.167574186	 0.541044042
 0.437419195	 0.167574186	 0.566821446
 0.462451515	 0.167574186	 0.614950790
 0.487483835	 0.167574186	 0.679648222
 0.512516174	 0.167574186	 0.679648203
 0.537548485	 0.167574186	 0.614950790
 0.562580814	 0.167574186	 0.566821432
 0.587613125	 0.167574186	 0.541044035
 0.612645435	 0.167574186	 0.527103333
 0.637677765	 0.167574186	 0.519025681
 0.362322240	 0.210933981	 0.519025690
 0.387354560	 0.210933981	 0.527103348
 0.412386885	 0.210933981	 0.541044081
 0.437419195	 0.210933981	 0.566821547
 0.462451515	 0.210933981	 0.614951090
 0.487483835	 0.210933981	 0.679648954
 0.512516174	 0.210933981	 0.679648935
 0.537548485	 0.210933981	 0.614951090
 0.562580814	 0.210933981	 0.566821534
 0.587613125	 0.210933981	 0.541044074
 0.612645435	 0.210933981	 0.527103350
 0.637677765	 0.210933981	 0.519025689
 0.362322240	 0.254293794	 0.516139336
 0.387354560	 0.254293794	 0.521600270
 0.412386885	 0.254293794	 0.529617383
 0.437419195	 0.254293794	 0.541042244
 0.462451515	 0.254293794	 0.555250881
 0.487483835	 0.254293794	 0.566816701
 0.512516174	 0.254293794	 0.566816698
 0.537548485	 0.254293794	 0.555250881
 0.562580814	 0.254293794	 0.541042239
 0.587613125	 0.254293794	 0.529617379
 0.612645435	 0.254293794	 0.521600271
 0.637677765	 0.254293794	 0.516139335
 0.362322240	 0.297653589	 0.512382330
 0.387354560	 0.297653589	 0.515362034
 0.412386885	 0.297653589	 0.519024506
 0.437419195	 0.297653589	 0.523166935
 0.462451515	 0.297653589	 0.527100942
 0.487483835	 0.297653589	 0.529615462
 0.512516174	 0.297653589	 0.529615461
 0.537548485	 0.297653589	 0.527100942
 0.562580814	 0.297653589	 0.523166934
 0.587613125	 0.297653589	 0.519024504
 0.612645435	 0.297653589	 0.515362035
 0.637677765	 0.297653589	 0.512382329
 0.362322240	 0.341013403	 0.509177679
 0.387354560	 0.341013403	 0.510718652
 0.412386885	 0.341013403	 0.512381823
 0.437419195	 0.341013403	 0.514012524
 0.462451515	 0.341013403	 0.515361254
 0.487483835	 0.341013403	 0.516137905
 0.512516174	 0.341013403	 0.516137905
 0.537548485	 0.341013403	 0.515361254
 0.562580814	 0.341013403	 0.514012523
 0.587613125	 0.341013403	 0.512381823
 0.612645435	 0.341013403	 0.510718653
 0.637677765	 0.341013403	 0.509177679
 0.349806080	 0.059174774	 0.509737818
 0.374838400	 0.059174774	 0.511701211
 0.399870720	 0.059174774	 0.514012862
 0.424903040	 0.059174774	 0.516556917
 0.449935360	 0.059174774	 0.519023932
 0.474967680	 0.059174774	 0.520891674
 0.500000000	 0.059174774	 0.521598510
 0.525032311	 0.059174774	 0.520891674
 0.550064640	 0.059174774	 0.519023932
 0.575096950	 0.059174774	 0.516556918
 0.600129280	 0.059174774	 0.514012862
 0.625161610	 0.059174774	 0.511701210
 0.349806080	 0.102534575	 0.512627444
 0.374838400	 0.102534575	 0.516139075
 0.399870720	 0.102534575	 0.520892882
 0.424903040	 0.102534575	 0.527101812
 0.449935360	 0.102534575	 0.534404990
 0.474967680	 0.102534575	 0.541040556
 0.500000000	 0.102534575	 0.543860281
 0.525032311	 0.102534575	 0.541040558
 0.550064640	 0.102534575	 0.534404990
 0.575096950	 0.102534575	 0.527101815
 0.600129280	 0.102534575	 0.520892882
 0.625161610	 0.102534575	 0.516139073
 0.349806080	 0.145894384	 0.515362706
 0.374838400	 0.145894384	 0.520893608
 0.399870720	 0.145894384	 0.529617959
 0.424903040	 0.145894384	 0.543863481
 0.449935360	 0.145894384	 0.566819647
 0.474967680	 0.145894384	 0.597406567
 0.500000000	 0.145894384	 0.614945458
 0.525032311	 0.145894384	 0.597406578
 0.550064640	 0.145894384	 0.566819647
 0.575096950	 0.145894384	 0.543863488
 0.600129280	 0.145894384	 0.529617959
 0.625161610	 0.145894384	 0.520893605
 0.349806080	 0.189254188	 0.516558283
 0.374838400	 0.189254188	 0.523168761
 0.399870720	 0.189254188	 0.534407614
 0.424903040	 0.189254188	 0.555254588
 0.449935360	 0.189254188	 0.597411820
 0.474967680	 0.189254188	 0.679653049
 0.525032311	 0.189254188	 0.679653087
 0.550064640	 0.189254188	 0.597411820
 0.575096950	 0.189254188	 0.555254599
 0.600129280	 0.189254188	 0.534407614
 0.625161610	 0.189254188	 0.523168758
 0.349806080	 0.232613993	 0.515362706
 0.374838400	 0.232613993	 0.520893608
 0.399870720	 0.232613993	 0.529617959
 0.424903040	 0.232613993	 0.543863481
 0.449935360	 0.232613993	 0.566819646
 0.474967680	 0.232613993	 0.597406566
 0.500000000	 0.232613993	 0.614945457
 0.525032311	 0.232613993	 0.597406577
 0.550064640	 0.232613993	 0.566819646
 0.575096950	 0.232613993	 0.543863488
 0.600129280	 0.232613993	 0.529617959
 0.625161610	 0.232613993	 0.520893605
 0.349806080	 0.275973787	 0.512627445
 0.374838400	 0.275973787	 0.516139076
 0.399870720	 0.275973787	 0.520892884
 0.424903040	 0.275973787	 0.527101817
 0.449935360	 0.275973787	 0.534404997
 0.474967680	 0.275973787	 0.541040567
 0.500000000	 0.275973787	 0.543860293
 0.525032311	 0.275973787	 0.541040569
 0.550064640	 0.275973787	 0.534404997
 0.575096950	 0.275973787	 0.527101819
 0.600129280	 0.275973787	 0.520892884
 0.625161610	 0.275973787	 0.516139075
 0.349806080	 0.319333601	 0.509737818
 0.374838400	 0.319333601	 0.511701211
 0.399870720	 0.319333601	 0.514012862
 0.424903040	 0.319333601	 0.516556917
 0.449935360	 0.319333601	 0.519023932
 0.474967680	 0.319333601	 0.520891674
 0.500000000	 0.319333601	 0.521598511
 0.525032311	 0.319333601	 0.520891675
 0.550064640	 0.319333601	 0.519023932
 0.575096950	 0.319333601	 0.516556918
 0.600129280	 0.319333601	 0.514012862
 0.625161610	 0.319333601	 0.511701210
 0.362322240	 0.384373195	 0.512382312
 0.387354560	 0.384373195	 0.515362007
 0.412386885	 0.384373195	 0.519024464
 0.437419195	 0.384373195	 0.523166873
 0.462451515	 0.384373195	 0.527100857
 0.487483835	 0.384373195	 0.529615361
 0.512516174	 0.384373195	 0.529615360
 0.537548485	 0.384373195	 0.527100857
 0.562580814	 0.384373195	 0.523166872
 0.587613125	 0.384373195	 0.519024462
 0.612645435	 0.384373195	 0.515362008
 0.637677765	 0.384373195	 0.512382312
 0.362322240	 0.427732997	 0.516139319
 0.387354560	 0.427732997	 0.521600239
 0.412386885	 0.427732997	 0.529617324
 0.437419195	 0.427732997	 0.541042132
 0.462451515	 0.427732997	 0.555250678
 0.487483835	 0.427732997	 0.566816403
 0.512516174	 0.427732997	 0.566816401
 0.537548485	 0.427732997	 0.555250678
 0.562580814	 0.427732997	 0.541042127
 0.587613125	 0.427732997	 0.529617320
 0.612645435	 0.427732997	 0.521600240
 0.637677765	 0.427732997	 0.516139318
 0.362322240	 0.471092806	 0.519025682
 0.387354560	 0.471092806	 0.527103331
 0.412386885	 0.471092806	 0.541044042
 0.437419195	 0.471092806	 0.566821446
 0.462451515	 0.471092806	 0.614950790
 0.487483835	 0.471092806	 0.679648222
 0.512516174	 0.471092806	 0.679648203
 0.537548485	 0.471092806	 0.614950790
 0.562580814	 0.471092806	 0.566821432
 0.587613125	 0.471092806	 0.541044035
 0.612645435	 0.471092806	 0.527103333
 0.637677765	 0.471092806	 0.519025681
 0.362322240	 0.514452601	 0.519025690
 0.387354560	 0.514452601	 0.527103348
 0.412386885	 0.514452601	 0.541044081
 0.437419195	 0.514452601	 0.566821547
 0.462451515	 0.514452601	 0.614951090
 0.487483835	 0.514452601	 0.679648954
 0.512516174	 0.514452601	 0.679648935
 0.537548485	 0.514452601	 0.614951090
 0.562580814	 0.514452601	 0.566821534
 0.587613125	 0.514452601	 0.541044074
 0.612645435	 0.514452601	 0.527103350
 0.637677765	 0.514452601	 0.519025689
 0.362322240	 0.557812414	 0.516139336
 0.387354560	 0.557812414	 0.521600270
 0.412386885	 0.557812414	 0.529617383
 0.437419195	 0.557812414	 0.541042244
 0.462451515	 0.557812414	 0.555250881
 0.487483835	 0.557812414	 0.566816701
 0.512516174	 0.557812414	 0.566816698
 0.537548485	 0.557812414	 0.555250881
 0.562580814	 0.557812414	 0.541042239
 0.587613125	 0.557812414	 0.529617379
 0.612645435	 0.557812414	 0.521600271
 0.637677765	 0.557812414	 0.516139335
 0.362322240	 0.601172209	 0.512382330
 0.387354560	 0.601172209	 0.515362034
 0.412386885	 0.601172209	 0.519024506
 0.437419195	 0.601172209	 0.523166935
 0.462451515	 0.601172209	 0.527100942
 0.487483835	 0.601172209	 0.529615462
 0.512516174	 0.601172209	 0.529615461
 0.537548485	 0.601172209	 0.527100942
 0.562580814	 0.601172209	 0.523166934
 0.587613125	 0.601172209	 0.519024504
 0.612645435	 0.601172209	 0.515362035
 0.637677765	 0.601172209	 0.512382329
 0.362322240	 0.644532022	 0.509177679
 0.387354560	 0.644532022	 0.510718652
 0.412386885	 0.644532022	 0.512381823
 0.437419195	 0.644532022	 0.514012524
 0.462451515	 0.644532022	 0.515361254
 0.487483835	 0.644532022	 0.516137905
 0.512516174	 0.644532022	 0.516137905
 0.537548485	 0.644532022	 0.515361254
 0.562580814	 0.644532022	 0.514012523
 0.587613125	 0.644532022	 0.512381823
 0.612645435	 0.644532022	 0.510718653
 0.637677765	 0.644532022	 0.509177679
 0.349806080	 0.362693393	 0.509737818
 0.374838400	 0.362693393	 0.511701211
 0.399870720	 0.362693393	 0.514012862
 0.424903040	 0.362693393	 0.516556917
 0.449935360	 0.362693393	 0.519023932
 0.474967680	 0.362693393	 0.520891674
 0.500000000	 0.362693393	 0.521598510
 0.525032311	 0.362693393	 0.520891674
 0.550064640	 0.362693393	 0.519023932
 0.575096950	 0.362693393	 0.516556918
 0.600129280	 0.362693393	 0.514012862
 0.625161610	 0.362693393	 0.511701210
 0.349806080	 0.406053195	 0.512627444
 0.374838400	 0.406053195	 0.516139075
 0.399870720	 0.406053195	 0.520892882
 0.424903040	 0.406053195	 0.527101812
 0.449935360	 0.406053195	 0.534404990
 0.474967680	 0.406053195	 0.541040556
 0.500000000	 0.406053195	 0.543860281
 0.525032311	 0.406053195	 0.541040558
 0.550064640	 0.406053195	 0.534404990
 0.575096950	 0.406053195	 0.527101815
 0.600129280	 0.406053195	 0.520892882
 0.625161610	 0.406053195	 0.516139073
 0.349806080	 0.449413004	 0.515362706
 0.374838400	 0.449413004	 0.520893608
 0.399870720	 0.449413004	 0.529617959
 0.424903040	 0.449413004	 0.543863481
 0.449935360	 0.449413004	 0.566819647
 0.474967680	 0.449413004	 0.597406567
 0.500000000	 0.449413004	 0.614945458
 0.525032311	 0.449413004	 0.597406578
 0.550064640	 0.449413004	 0.566819647
 0.575096950	 0.449413004	 0.543863488
 0.600129280	 0.449413004	 0.529617959
 0.625161610	 0.449413004	 0.520893605
 0.349806080	 0.492772808	 0.516558283
 0.374838400	 0.492772808	 0.523168761
 0.399870720	 0.492772808	 0.534407614
 0.424903040	 0.492772808	 0.555254588
 0.449935360	 0.492772808	 0.597411820
 0.474967680	 0.492772808	 0.679653049
 0.525032311	 0.492772808	 0.679653087
 0.550064640	 0.492772808	 0.597411820
 0.575096950	 0.492772808	 0.555254599
 0.600129280	 0.492772808	 0.534407614
 0.625161610	 0.492772808	 0.523168758
 0.349806080	 0.536132612	 0.515362706
 0.374838400	 0.536132612	 0.520893608
 0.399870720	 0.536132612	 0.529617959
 0.424903040	 0.536132612	 0.543863481
 0.449935360	 0.536132612	 0.566819646
 0.474967680	 0.536132612	 0.597406566
 0.500000000	 0.536132612	 0.614945457
 0.525032311	 0.536132612	 0.597406577
 0.550064640	 0.536132612	 0.566819646
 0.575096950	 0.536132612	 0.543863488
 0.600129280	 0.536132612	 0.529617959
 0.625161610	 0.536132612	 0.520893605
 0.349806080	 0.579492407	 0.512627445
 0.374838400	 0.579492407	 0.516139076
 0.399870720	 0.579492407	 0.520892884
 0.424903040	 0.579492407	 0.527101817
 0.449935360	 0.579492407	 0.534404997
 0.474967680	 0.579492407	 0.541040567
 0.500000000	 0.579492407	 0.543860293
 0.525032311	 0.579492407	 0.541040569
 0.550064640	 0.579492407	 0.534404997
 0.575096950	 0.579492407	 0.527101819
 0.600129280	 0.579492407	 0.520892884
 0.625161610	 0.579492407	 0.516139075
 0.349806080	 0.622852220	 0.509737818
 0.374838400	 0.622852220	 0.511701211
 0.399870720	 0.622852220	 0.514012862
 0.424903040	 0.622852220	 0.516556917
 0.449935360	 0.622852220	 0.519023932
 0.474967680	 0.622852220	 0.520891674
 0.500000000	 0.622852220	 0.521598511
 0.525032311	 0.622852220	 0.520891675
 0.550064640	 0.622852220	 0.519023932
 0.575096950	 0.622852220	 0.516556918
 0.600129280	 0.622852220	 0.514012862
 0.625161610	 0.622852220	 0.511701210
 0.500000000	 0.796291428	 0.750011588
 0.362322240	 0.687891815	 0.512382312
 0.387354560	 0.687891815	 0.515362007
 0.412386885	 0.687891815	 0.519024464
 0.437419195	 0.687891815	 0.523166873
 0.462451515	 0.687891815	 0.527100857
 0.487483835	 0.687891815	 0.529615361
 0.512516174	 0.687891815	 0.529615360
 0.537548485	 0.687891815	 0.527100857
 0.562580814	 0.687891815	 0.523166872
 0.587613125	 0.687891815	 0.519024462
 0.612645435	 0.687891815	 0.515362008
 0.637677765	 0.687891815	 0.512382312
 0.362322240	 0.731251617	 0.516139319
 0.387354560	 0.731251617	 0.521600239
 0.412386885	 0.731251617	 0.529617324
 0.437419195	 0.731251617	 0.541042132
 0.462451515	 0.731251617	 0.555250678
 0.487483835	 0.731251617	 0.566816403
 0.512516174	 0.731251617	 0.566816401
 0.537548485	 0.731251617	 0.555250678
 0.562580814	 0.731251617	 0.541042127
 0.587613125	 0.731251617	 0.529617320
 0.612645435	 0.731251617	 0.521600240
 0.637677765	 0.731251617	 0.516139318
 0.362322240	 0.774611425	 0.519025682
 0.387354560	 0.774611425	 0.527103331
 0.412386885	 0.774611425	 0.541044042
 0.437419195	 0.774611425	 0.566821446
 0.462451515	 0.774611425	 0.614950790
 0.487483835	 0.774611425	 0.679648222
 0.512516174	 0.774611425	 0.679648203
 0.537548485	 0.774611425	 0.614950790
 0.562580814	 0.774611425	 0.566821432
 0.587613125	 0.774611425	 0.541044035
 0.612645435	 0.774611425	 0.527103333
 0.637677765	 0.774611425	 0.519025681
 0.362322240	 0.817971220	 0.519025690
 0.387354560	 0.817971220	 0.527103348
 0.412386885	 0.817971220	 0.541044081
 0.437419195	 0.817971220	 0.566821547
 0.462451515	 0.817971220	 0.614951090
 0.487483835	 0.817971220	 0.679648954
 0.512516174	 0.817971220	 0.679648935
 0.537548485	 0.817971220	 0.614951090
 0.562580814	 0.817971220	 0.566821534
 0.587613125	 0.817971220	 0.541044074
 0.612645435	 0.817971220	 0.527103350
 0.637677765	 0.817971220	 0.519025689
 0.362322240	 0.861331034	 0.516139336
 0.387354560	 0.861331034	 0.521600270
 0.412386885	 0.861331034	 0.529617383
 0.437419195	 0.861331034	 0.541042244
 0.462451515	 0.861331034	 0.555250881
 0.487483835	 0.861331034	 0.566816701
 0.512516174	 0.861331034	 0.566816698
 0.537548485	 0.861331034	 0.555250881
 0.562580814	 0.861331034	 0.541042239
 0.587613125	 0.861331034	 0.529617379
 0.612645435	 0.861331034	 0.521600271
 0.637677765	 0.861331034	 0.516139335
 0.362322240	 0.904690828	 0.512382330
 0.387354560	 0.904690828	 0.515362034
 0.412386885	 0.904690828	 0.519024506
 0.437419195	 0.904690828	 0.523166935
 0.462451515	 0.904690828	 0.527100942
 0.487483835	 0.904690828	 0.529615462
 0.512516174	 0.904690828	 0.529615461
 0.537548485	 0.904690828	 0.527100942
 0.562580814	 0.904690828	 0.523166934
 0.587613125	 0.904690828	 0.519024504
 0.612645435	 0.904690828	 0.515362035
 0.637677765	 0.904690828	 0.512382329
 0.362322240	 0.948050642	 0.509177679
 0.387354560	 0.948050642	 0.510718652
 0.412386885	 0.948050642	 0.512381823
 0.437419195	 0.948050642	 0.514012524
 0.462451515	 0.948050642	 0.515361254
 0.487483835	 0.948050642	 0.516137905
 0.512516174	 0.948050642	 0.516137905
 0.537548485	 0.948050642	 0.515361254
 0.562580814	 0.948050642	 0.514012523
 0.587613125	 0.948050642	 0.512381823
 0.612645435	 0.948050642	 0.510718653
 0.637677765	 0.948050642	 0.509177679
 0.349806080	 0.666212013	 0.509737818
 0.374838400	 0.666212013	 0.511701211
 0.399870720	 0.666212013	 0.514012862
 0.424903040	 0.666212013	 0.516556917
 0.449935360	 0.666212013	 0.519023932
 0.474967680	 0.666212013	 0.520891674
 0.500000000	 0.666212013	 0.521598510
 0.525032311	 0.666212013	 0.520891674
 0.550064640	 0.666212013	 0.519023932
 0.575096950	 0.666212013	 0.516556918
 0.600129280	 0.666212013	 0.514012862
 0.625161610	 0.666212013	 0.511701210
 0.349806080	 0.709571815	 0.512627444
 0.374838400	 0.709571815	 0.516139075
 0.399870720	 0.709571815	 0.520892882
 0.424903040	 0.709571815	 0.527101812
 0.449935360	 0.709571815	 0.534404990
 0.474967680	 0.709571815	 0.541040556
 0.500000000	 0.709571815	 0.543860281
 0.525032311	 0.709571815	 0.541040558
 0.550064640	 0.709571815	 0.534404990
 0.575096950	 0.709571815	 0.527101815
 0.600129280	 0.709571815	 0.520892882
 0.625161610	 0.709571815	 0.516139073
 0.349806080	 0.752931623	 0.515362706
 0.374838400	 0.752931623	 0.520893608
 0.399870720	 0.752931623	 0.529617959
 0.424903040	 0.752931623	 0.543863481
 0.449935360	 0.752931623	 0.566819647
 0.474967680	 0.752931623	 0.597406567
 0.500000000	 0.752931623	 0.614945458
 0.525032311	 0.752931623	 0.597406578
 0.550064640	 0.752931623	 0.566819647
 0.575096950	 0.752931623	 0.543863488
 0.600129280	 0.752931623	 0.529617959
 0.625161610	 0.752931623	 0.520893605
 0.349806080	 0.796291428	 0.516558283
 0.374838400	 0.796291428	 0.523168761
 0.399870720	 0.796291428	 0.534407614
 0.424903040	 0.796291428	 0.555254588
 0.449935360	 0.796291428	 0.597411820
 0.474967680	 0.796291428	 0.679653049
 0.525032311	 0.796291428	 0.679653087
 0.550064640	 0.796291428	 0.597411820
 0.575096950	 0.796291428	 0.555254599
 0.600129280	 0.796291428	 0.534407614
 0.625161610	 0.796291428	 0.523168758
 0.349806080	 0.839651232	 0.515362706
 0.374838400	 0.839651232	 0.520893608
 0.399870720	 0.839651232	 0.529617959
 0.424903040	 0.839651232	 0.543863481
 0.449935360	 0.839651232	 0.566819646
 0.474967680	 0.839651232	 0.597406566
 0.500000000	 0.839651232	 0.614945457
 0.525032311	 0.839651232	 0.597406577
 0.550064640	 0.839651232	 0.566819646
 0.575096950	 0.839651232	 0.543863488
 0.600129280	 0.839651232	 0.529617959
 0.625161610	 0.839651232	 0.520893605
 0.349806080	 0.883011027	 0.512627445
 0.374838400	 0.883011027	 0.516139076
 0.399870720	 0.883011027	 0.520892884
 0.424903040	 0.883011027	 0.527101817
 0.449935360	 0.883011027	 0.534404997
 0.474967680	 0.883011027	 0.541040567
 0.500000000	 0.883011027	 0.543860293
 0.525032311	 0.883011027	 0.541040569
 0.550064640	 0.883011027	 0.534404997
 0.575096950	 0.883011027	 0.527101819
 0.600129280	 0.883011027	 0.520892884
 0.625161610	 0.883011027	 0.516139075
 0.349806080	 0.926370840	 0.509737818
 0.374838400	 0.926370840	 0.511701211
 0.399870720	 0.926370840	 0.514012862
 0.424903040	 0.926370840	 0.516556917
 0.449935360	 0.926370840	 0.519023932
 0.474967680	 0.926370840	 0.520891674
 0.500000000	 0.926370840	 0.521598511
 0.525032311	 0.926370840	 0.520891675
 0.550064640	 0.926370840	 0.519023932
 0.575096950	 0.926370840	 0.516556918
 0.600129280	 0.926370840	 0.514012862
 0.625161610	 0.926370840	 0.511701210
 0.061934400	 0.037494783	 0.500000000
 0.086966720	 0.037494783	 0.500000000
 0.111999044	 0.037494783	 0.500000000
 0.137031355	 0.037494783	 0.500000000
 0.162063675	 0.037494783	 0.500000000
 0.187095995	 0.037494783	 0.500000000
 0.212128334	 0.037494783	 0.500000000
 0.237160645	 0.037494783	 0.500000000
 0.262192974	 0.037494783	 0.500000000
 0.287225285	 0.037494783	 0.500000000
 0.312257595	 0.037494783	 0.500000000
 0.337289925	 0.037494783	 0.500000000
 0.049418240	 0.015814981	 0.500000000
 0.074450560	 0.015814981	 0.500000000
 0.099482880	 0.015814981	 0.500000000
 0.124515200	 0.015814981	 0.500000000
 0.149547520	 0.015814981	 0.500000000
 0.174579840	 0.015814981	 0.500000000
 0.199612160	 0.015814981	 0.500000000
 0.224644470	 0.015814981	 0.500000000
 0.249676800	 0.015814981	 0.500000000
 0.274709110	 0.015814981	 0.500000000
 0.299741440	 0.015814981	 0.500000000
 0.324773769	 0.015814981	 0.500000000
 0.362322240	 0.991410434	 0.512382312
 0.387354560	 0.991410434	 0.515362007
 0.412386885	 0.991410434	 0.519024464
 0.437419195	 0.991410434	 0.523166873
 0.462451515	 0.991410434	 0.527100857
 0.487483835	 0.991410434	 0.529615361
 0.512516174	 0.991410434	 0.529615360
 0.537548485	 0.991410434	 0.527100857
 0.562580814	 0.991410434	 0.523166872
 0.587613125	 0.991410434	 0.519024462
 0.612645435	 0.991410434	 0.515362008
 0.637677765	 0.991410434	 0.512382312
 0.349806080	 0.969730632	 0.509737818
 0.374838400	 0.969730632	 0.511701211
 0.399870720	 0.969730632	 0.514012862
 0.424903040	 0.969730632	 0.516556917
 0.449935360	 0.969730632	 0.519023932
 0.474967680	 0.969730632	 0.520891674
 0.500000000	 0.969730632	 0.521598510
 0.525032311	 0.969730632	 0.520891674
 0.550064640	 0.969730632	 0.519023932
 0.575096950	 0.969730632	 0.516556918
 0.600129280	 0.969730632	 0.514012862
 0.625161610	 0.969730632	 0.511701210
 0.061934400	 0.080854576	 0.500000000
 0.086966720	 0.080854576	 0.500000000
 0.111999044	 0.080854576	 0.500000000
 0.137031355	 0.080854576	 0.500000000
 0.162063675	 0.080854576	 0.500000000
 0.187095995	 0.080854576	 0.500000000
 0.212128334	 0.080854576	 0.500000000
 0.237160645	 0.080854576	 0.500000000
 0.262192974	 0.080854576	 0.500000000
 0.287225285	 0.080854576	 0.500000000
 0.312257595	 0.080854576	 0.500000000
 0.337289925	 0.080854576	 0.500000000
 0.061934400	 0.124214377	 0.500000000
 0.086966720	 0.124214377	 0.500000000
 0.111999044	 0.124214377	 0.500000000
 0.137031355	 0.124214377	 0.500000000
 0.162063675	 0.124214377	 0.500000000
 0.187095995	 0.124214377	 0.500000000
 0.212128334	 0.124214377	 0.500000000
 0.237160645	 0.124214377	 0.500000000
 0.262192974	 0.124214377	 0.500000000
 0.287225285	 0.124214377	 0.500000000
 0.312257595	 0.124214377	 0.500000000
 0.337289925	 0.124214377	 0.500000000
 0.061934400	 0.167574186	 0.500000000
 0.086966720	 0.167574186	 0.500000000
 0.111999044	 0.167574186	 0.500000000
 0.137031355	 0.167574186	 0.500000000
 0.162063675	 0.167574186	 0.500000000
 0.187095995	 0.167574186	 0.500000000
 0.212128334	 0.167574186	 0.500000000
 0.237160645	 0.167574186	 0.500000000
 0.262192974	 0.167574186	 0.500000000
 0.287225285	 0.167574186	 0.500000000
 0.312257595	 0.167574186	 0.500000000
 0.337289925	 0.167574186	 0.500000000
 0.061934400	 0.210933981	 0.500000000
 0.086966720	 0.210933981	 0.500000000
 0.111999044	 0.210933981	 0.500000000
 0.137031355	 0.210933981	 0.500000000
 0.162063675	 0.210933981	 0.500000000
 0.187095995	 0.210933981	 0.500000000
 0.212128334	 0.210933981	 0.500000000
 0.237160645	 0.210933981	 0.500000000
 0.262192974	 0.210933981	 0.500000000
 0.287225285	 0.210933981	 0.500000000
 0.312257595	 0.210933981	 0.500000000
 0.337289925	 0.210933981	 0.500000000
 0.061934400	 0.254293794	 0.500000000
 0.086966720	 0.254293794	 0.500000000
 0.111999044	 0.254293794	 0.500000000
 0.137031355	 0.254293794	 0.500000000
 0.162063675	 0.254293794	 0.500000000
 0.187095995	 0.254293794	 0.500000000
 0.212128334	 0.254293794	 0.500000000
 0.237160645	 0.254293794	 0.500000000
 0.262192974	 0.254293794	 0.500000000
 0.287225285	 0.254293794	 0.500000000
 0.312257595	 0.254293794	 0.500000000
 0.337289925	 0.254293794	 0.500000000
 0.061934400	 0.297653589	 0.500000000
 0.086966720	 0.297653589	 0.500000000
 0.111999044	 0.297653589	 0.500000000
 0.137031355	 0.297653589	 0.500000000
 0.162063675	 0.297653589	 0.500000000
 0.187095995	 0.297653589	 0.500000000
 0.212128334	 0.297653589	 0.500000000
 0.237160645	 0.297653589	 0.500000000
 0.262192974	 0.297653589	 0.500000000
 0.287225285	 0.297653589	 0.500000000
 0.312257595	 0.297653589	 0.500000000
 0.337289925	 0.297653589	 0.500000000
 0.061934400	 0.341013403	 0.500000000
 0.086966720	 0.341013403	 0.500000000
 0.111999044	 0.341013403	 0.500000000
 0.137031355	 0.341013403	 0.500000000
 0.162063675	 0.341013403	 0.500000000
 0.187095995	 0.341013403	 0.500000000
 0.212128334	 0.341013403	 0.500000000
 0.237160645	 0.341013403	 0.500000000
 0.262192974	 0.341013403	 0.500000000
 0.287225285	 0.341013403	 0.500000000
 0.312257595	 0.341013403	 0.500000000
 0.337289925	 0.341013403	 0.500000000
 0.049418240	 0.059174774	 0.500000000
 0.074450560	 0.059174774	 0.500000000
 0.099482880	 0.059174774	 0.500000000
 0.124515200	 0.059174774	 0.500000000
 0.149547520	 0.059174774	 0.500000000
 0.174579840	 0.059174774	 0.500000000
 0.199612160	 0.059174774	 0.500000000
 0.224644470	 0.059174774	 0.500000000
 0.249676800	 0.059174774	 0.500000000
 0.274709110	 0.059174774	 0.500000000
 0.299741440	 0.059174774	 0.500000000
 0.324773769	 0.059174774	 0.500000000
 0.049418240	 0.102534575	 0.500000000
 0.074450560	 0.102534575	 0.500000000
 0.099482880	 0.102534575	 0.500000000
 0.124515200	 0.102534575	 0.500000000
 0.149547520	 0.102534575	 0.500000000
 0.174579840	 0.102534575	 0.500000000
 0.199612160	 0.102534575	 0.500000000
 0.224644470	 0.102534575	 0.500000000
 0.249676800	 0.102534575	 0.500000000
 0.274709110	 0.102534575	 0.500000000
 0.299741440	 0.102534575	 0.500000000
 0.324773769	 0.102534575	 0.500000000
 0.049418240	 0.145894384	 0.500000000
 0.074450560	 0.145894384	 0.500000000
 0.099482880	 0.145894384	 0.500000000
 0.124515200	 0.145894384	 0.500000000
 0.149547520	 0.145894384	 0.500000000
 0.174579840	 0.145894384	 0.500000000
 0.199612160	 0.145894384	 0.500000000
 0.224644470	 0.145894384	 0.500000000
 0.249676800	 0.145894384	 0.500000000
 0.274709110	 0.145894384	 0.500000000
 0.299741440	 0.145894384	 0.500000000
 0.324773769	 0.145894384	 0.500000000
 0.049418240	 0.189254188	 0.500000000
 0.074450560	 0.189254188	 0.500000000
 0.099482880	 0.189254188	 0.500000000
 0.124515200	 0.189254188	 0.500000000
 0.149547520	 0.189254188	 0.500000000
 0.174579840	 0.189254188	 0.500000000
 0.199612160	 0.189254188	 0.500000000
 0.224644470	 0.189254188	 0.500000000
 0.249676800	 0.189254188	 0.500000000
 0.274709110	 0.189254188	 0.500000000
 0.299741440	 0.189254188	 0.500000000
 0.324773769	 0.189254188	 0.500000000
 0.049418240	 0.232613993	 0.500000000
 0.074450560	 0.232613993	 0.500000000
 0.099482880	 0.232613993	 0.500000000
 0.124515200	 0.232613993	 0.500000000
 0.149547520	 0.232613993	 0.500000000
 0.174579840	 0.232613993	 0.500000000
 0.199612160	 0.232613993	 0.500000000
 0.224644470	 0.232613993	 0.500000000
 0.249676800	 0.232613993	 0.500000000
 0.274709110	 0.232613993	 0.500000000
 0.299741440	 0.232613993	 0.500000000
 0.324773769	 0.232613993	 0.500000000
 0.049418240	 0.275973787	 0.500000000
 0.074450560	 0.275973787	 0.500000000
 0.099482880	 0.275973787	 0.500000000
 0.124515200	 0.275973787	 0.500000000
 0.149547520	 0.275973787	 0.500000000
 0.174579840	 0.275973787	 0.500000000
 0.199612160	 0.275973787	 0.500000000
 0.224644470	 0.275973787	 0.500000000
 0.249676800	 0.275973787	 0.500000000
 0.274709110	 0.275973787	 0.500000000
 0.299741440	 0.275973787	 0.500000000
 0.324773769	 0.275973787	 0.500000000
 0.049418240	 0.319333601	 0.500000000
 0.074450560	 0.319333601	 0.500000000
 0.099482880	 0.319333601	 0.500000000
 0.124515200	 0.319333601	 0.500000000
 0.149547520	 0.319333601	 0.500000000
 0.174579840	 0.319333601	 0.500000000
 0.199612160	 0.319333601	 0.500000000
 0.224644470	 0.319333601	 0.500000000
 0.249676800	 0.319333601	 0.500000000