POSCAR_of_example/config_insert
1.0
  100.00000	    0.00000	    0.00000
    0.00000	  100.00000	    0.00000
    0.00000	    0.00000	    9.99954
 B   N  
 1839   1840  
Direct
 0.016876228	 0.007142921	 0.200000000
 0.041908539	 0.007142921	 0.200000000
 0.066940868	 0.007142921	 0.200000000
 0.392361024	 0.007142921	 0.200000000
 0.417393344	 0.007142921	 0.200000000
 0.442425669	 0.007142921	 0.200000000
 0.467457979	 0.007142921	 0.200000000
 0.492490299	 0.007142921	 0.200000000
 0.517522619	 0.007142921	 0.200000000
 0.542554958	 0.007142921	 0.200000000
 0.567587269	 0.007142921	 0.200000000
 0.592619598	 0.007142921	 0.200000000
 0.617651909	 0.007142921	 0.200000000
 0.642684219	 0.007142921	 0.200000000
 0.667716549	 0.007142921	 0.200000000
 0.993136705	 0.007142921	 0.200000000
 0.016876228	 0.050502714	 0.200000000
 0.041908539	 0.050502714	 0.200000000
 0.066940868	 0.050502714	 0.200000000
 0.016876228	 0.093862516	 0.200000000
 0.041908539	 0.093862516	 0.200000000
 0.066940868	 0.093862516	 0.200000000
 0.016876228	 0.137222324	 0.200000000
 0.041908539	 0.137222324	 0.200000000
 0.066940868	 0.137222324	 0.200000000
 0.016876228	 0.180582119	 0.200000000
 0.041908539	 0.180582119	 0.200000000
 0.066940868	 0.180582119	 0.200000000
 0.016876228	 0.223941933	 0.200000000
 0.041908539	 0.223941933	 0.200000000
 0.066940868	 0.223941933	 0.200000000
 0.016876228	 0.267301727	 0.200000000
 0.041908539	 0.267301727	 0.200000000
 0.066940868	 0.267301727	 0.200000000
 0.016876228	 0.310661541	 0.200000000
 0.041908539	 0.310661541	 0.200000000
 0.066940868	 0.310661541	 0.200000000
 0.004360054	 0.028822912	 0.200000000
 0.029392383	 0.028822912	 0.200000000
 0.054424713	 0.028822912	 0.200000000
 0.004360054	 0.072182714	 0.200000000
 0.029392383	 0.072182714	 0.200000000
 0.054424713	 0.072182714	 0.200000000
 0.004360054	 0.115542522	 0.200000000
 0.029392383	 0.115542522	 0.200000000
 0.054424713	 0.115542522	 0.200000000
 0.004360054	 0.158902326	 0.200000000
 0.029392383	 0.158902326	 0.200000000
 0.054424713	 0.158902326	 0.200000000
 0.004360054	 0.202262131	 0.200000000
 0.029392383	 0.202262131	 0.200000000
 0.054424713	 0.202262131	 0.200000000
 0.004360054	 0.245621925	 0.200000000
 0.029392383	 0.245621925	 0.200000000
 0.054424713	 0.245621925	 0.200000000
 0.004360054	 0.288981739	 0.200000000
 0.029392383	 0.288981739	 0.200000000
 0.054424713	 0.288981739	 0.200000000
 0.392361024	 0.050502714	 0.200000000
 0.417393344	 0.050502714	 0.200000000
 0.442425669	 0.050502714	 0.200000000
 0.467457979	 0.050502714	 0.200000000
 0.492490299	 0.050502714	 0.200000000
 0.517522619	 0.050502714	 0.200000000
 0.542554958	 0.050502714	 0.200000000
 0.567587269	 0.050502714	 0.200000000
 0.592619598	 0.050502714	 0.200000000
 0.617651909	 0.050502714	 0.200000000
 0.642684219	 0.050502714	 0.200000000
 0.667716549	 0.050502714	 0.200000000
 0.392361024	 0.093862516	 0.200000000
 0.417393344	 0.093862516	 0.200000000
 0.442425669	 0.093862516	 0.200000000
 0.467457979	 0.093862516	 0.200000000
 0.492490299	 0.093862516	 0.200000000
 0.517522619	 0.093862516	 0.200000000
 0.542554958	 0.093862516	 0.200000000
 0.567587269	 0.093862516	 0.200000000
 0.592619598	 0.093862516	 0.200000000
 0.617651909	 0.093862516	 0.200000000
 0.642684219	 0.093862516	 0.200000000
 0.667716549	 0.093862516	 0.200000000
 0.392361024	 0.137222324	 0.200000000
 0.417393344	 0.137222324	 0.200000000
 0.442425669	 0.137222324	 0.200000000
 0.467457979	 0.137222324	 0.200000000
 0.492490299	 0.137222324	 0.200000000
 0.517522619	 0.137222324	 0.200000000
 0.542554958	 0.137222324	 0.200000000
 0.567587269	 0.137222324	 0.200000000
 0.592619598	 0.137222324	 0.200000000
 0.617651909	 0.137222324	 0.200000000
 0.642684219	 0.137222324	 0.200000000
 0.667716549	 0.137222324	 0.200000000
 0.392361024	 0.180582119	 0.200000000
 0.417393344	 0.180582119	 0.200000000
 0.442425669	 0.180582119	 0.200000000
 0.467457979	 0.180582119	 0.200000000
 0.492490299	 0.180582119	 0.200000000
 0.517522619	 0.180582119	 0.200000000
 0.542554958	 0.180582119	 0.200000000
 0.567587269	 0.180582119	 0.200000000
 0.592619598	 0.180582119	 0.200000000
 0.617651909	 0.180582119	 0.200000000
 0.642684219	 0.180582119	 0.200000000
 0.667716549	 0.180582119	 0.200000000
 0.392361024	 0.223941933	 0.200000000
 0.417393344	 0.223941933	 0.200000000
 0.442425669	 0.223941933	 0.200000000
 0.467457979	 0.223941933	 0.200000000
 0.492490299	 0.223941933	 0.200000000
 0.517522619	 0.223941933	 0.200000000
 0.542554958	 0.223941933	 0.200000000
 0.567587269	 0.223941933	 0.200000000
 0.592619598	 0.223941933	 0.200000000
 0.617651909	 0.223941933	 0.200000000
 0.642684219	 0.223941933	 0.200000000
 0.667716549	 0.223941933	 0.200000000
 0.392361024	 0.267301727	 0.200000000
 0.417393344	 0.267301727	 0.200000000
 0.442425669	 0.267301727	 0.200000000
 0.467457979	 0.267301727	 0.200000000
 0.492490299	 0.267301727	 0.200000000
 0.517522619	 0.267301727	 0.200000000
 0.542554958	 0.267301727	 0.200000000
 0.567587269	 0.267301727	 0.200000000
 0.592619598	 0.267301727	 0.200000000
 0.617651909	 0.267301727	 0.200000000
 0.642684219	 0.267301727	 0.200000000
 0.667716549	 0.267301727	 0.200000000
 0.392361024	 0.310661541	 0.200000000
 0.417393344	 0.310661541	 0.200000000
 0.442425669	 0.310661541	 0.200000000
 0.467457979	 0.310661541	 0.200000000
 0.492490299	 0.310661541	 0.200000000
 0.517522619	 0.310661541	 0.200000000
 0.542554958	 0.310661541	 0.200000000
 0.567587269	 0.310661541	 0.200000000
 0.592619598	 0.310661541	 0.200000000
 0.617651909	 0.310661541	 0.200000000
 0.642684219	 0.310661541	 0.200000000
 0.667716549	 0.310661541	 0.200000000
 0.379844864	 0.028822912	 0.200000000
 0.404877184	 0.028822912	 0.200000000
 0.429909504	 0.028822912	 0.200000000
 0.454941824	 0.028822912	 0.200000000
 0.479974144	 0.028822912	 0.200000000
 0.505006464	 0.028822912	 0.200000000
 0.530038784	 0.028822912	 0.200000000
 0.555071095	 0.028822912	 0.200000000
 0.580103424	 0.028822912	 0.200000000
 0.605135734	 0.028822912	 0.200000000
 0.630168064	 0.028822912	 0.200000000
 0.655200394	 0.028822912	 0.200000000
 0.379844864	 0.072182714	 0.200000000
 0.404877184	 0.072182714	 0.200000000
 0.429909504	 0.072182714	 0.200000000
 0.454941824	 0.072182714	 0.200000000
 0.479974144	 0.072182714	 0.200000000
 0.505006464	 0.072182714	 0.200000000
 0.530038784	 0.072182714	 0.200000000
 0.555071095	 0.072182714	 0.200000000
 0.580103424	 0.072182714	 0.200000000
 0.605135734	 0.072182714	 0.200000000
 0.630168064	 0.072182714	 0.200000000
 0.655200394	 0.072182714	 0.200000000
 0.379844864	 0.115542522	 0.200000000
 0.404877184	 0.115542522	 0.200000000
 0.429909504	 0.115542522	 0.200000000
 0.454941824	 0.115542522	 0.200000000
 0.479974144	 0.115542522	 0.200000000
 0.505006464	 0.115542522	 0.200000000
 0.530038784	 0.115542522	 0.200000000
 0.555071095	 0.115542522	 0.200000000
 0.580103424	 0.115542522	 0.200000000
 0.605135734	 0.115542522	 0.200000000
 0.630168064	 0.115542522	 0.200000000
 0.655200394	 0.115542522	 0.200000000
 0.379844864	 0.158902326	 0.200000000
 0.404877184	 0.158902326	 0.200000000
 0.429909504	 0.158902326	 0.200000000
 0.454941824	 0.158902326	 0.200000000
 0.479974144	 0.158902326	 0.200000000
 0.505006464	 0.158902326	 0.200000000
 0.530038784	 0.158902326	 0.200000000
 0.555071095	 0.158902326	 0.200000000
 0.580103424	 0.158902326	 0.200000000
 0.605135734	 0.158902326	 0.200000000
 0.630168064	 0.158902326	 0.200000000
 0.655200394	 0.158902326	 0.200000000
 0.379844864	 0.202262131	 0.200000000
 0.404877184	 0.202262131	 0.200000000
 0.429909504	 0.202262131	 0.200000000
 0.454941824	 0.202262131	 0.200000000
 0.479974144	 0.202262131	 0.200000000
 0.505006464	 0.202262131	 0.200000000
 0.530038784	 0.202262131	 0.200000000
 0.555071095	 0.202262131	 0.200000000
 0.580103424	 0.202262131	 0.200000000
 0.605135734	 0.202262131	 0.200000000
 0.630168064	 0.202262131	 0.200000000
 0.655200394	 0.202262131	 0.200000000
 0.379844864	 0.245621925	 0.200000000
 0.404877184	 0.245621925	 0.200000000
 0.429909504	 0.245621925	 0.200000000
 0.454941824	 0.245621925	 0.200000000
 0.479974144	 0.245621925	 0.200000000
 0.505006464	 0.245621925	 0.200000000
 0.530038784	 0.245621925	 0.200000000
 0.555071095	 0.245621925	 0.200000000
 0.580103424	 0.245621925	 0.200000000
 0.605135734	 0.245621925	 0.200000000
 0.630168064	 0.245621925	 0.200000000
 0.655200394	 0.245621925	 0.200000000
 0.379844864	 0.288981739	 0.200000000
 0.404877184	 0.288981739	 0.200000000
 0.429909504	 0.288981739	 0.200000000
 0.454941824	 0.288981739	 0.200000000
 0.479974144	 0.288981739	 0.200000000
 0.505006464	 0.288981739	 0.200000000
 0.530038784	 0.288981739	 0.200000000
 0.555071095	 0.288981739	 0.200000000
 0.580103424	 0.288981739	 0.200000000
 0.605135734	 0.288981739	 0.200000000
 0.630168064	 0.288981739	 0.200000000
 0.655200394	 0.288981739	 0.200000000
 0.993136705	 0.050502714	 0.200000000
 0.993136705	 0.093862516	 0.200000000
 0.993136705	 0.137222324	 0.200000000
 0.993136705	 0.180582119	 0.200000000
 0.993136705	 0.223941933	 0.200000000
 0.993136705	 0.267301727	 0.200000000
 0.993136705	 0.310661541	 0.200000000
 0.980620544	 0.028822912	 0.200000000
 0.980620544	 0.072182714	 0.200000000
 0.980620544	 0.115542522	 0.200000000
 0.980620544	 0.158902326	 0.200000000
 0.980620544	 0.202262131	 0.200000000
 0.980620544	 0.245621925	 0.200000000
 0.980620544	 0.288981739	 0.200000000
 0.016876228	 0.354021333	 0.200000000
 0.041908539	 0.354021333	 0.200000000
 0.066940868	 0.354021333	 0.200000000
 0.016876228	 0.397381135	 0.200000000
 0.041908539	 0.397381135	 0.200000000
 0.066940868	 0.397381135	 0.200000000
 0.016876228	 0.440740944	 0.200000000
 0.041908539	 0.440740944	 0.200000000
 0.066940868	 0.440740944	 0.200000000
 0.016876228	 0.484100739	 0.200000000
 0.041908539	 0.484100739	 0.200000000
 0.066940868	 0.484100739	 0.200000000
 0.016876228	 0.527460552	 0.200000000
 0.041908539	 0.527460552	 0.200000000
 0.066940868	 0.527460552	 0.200000000
 0.016876228	 0.570820347	 0.200000000
 0.041908539	 0.570820347	 0.200000000
 0.066940868	 0.570820347	 0.200000000
 0.016876228	 0.614180160	 0.200000000
 0.041908539	 0.614180160	 0.200000000
 0.066940868	 0.614180160	 0.200000000
 0.004360054	 0.332341531	 0.200000000
 0.029392383	 0.332341531	 0.200000000
 0.054424713	 0.332341531	 0.200000000
 0.004360054	 0.375701333	 0.200000000
 0.029392383	 0.375701333	 0.200000000
 0.054424713	 0.375701333	 0.200000000
 0.004360054	 0.419061142	 0.200000000
 0.029392383	 0.419061142	 0.200000000
 0.054424713	 0.419061142	 0.200000000
 0.004360054	 0.462420946	 0.200000000
 0.029392383	 0.462420946	 0.200000000
 0.054424713	 0.462420946	 0.200000000
 0.004360054	 0.505780750	 0.200000000
 0.029392383	 0.505780750	 0.200000000
 0.054424713	 0.505780750	 0.200000000
 0.004360054	 0.549140545	 0.200000000
 0.029392383	 0.549140545	 0.200000000
 0.054424713	 0.549140545	 0.200000000
 0.004360054	 0.592500358	 0.200000000
 0.029392383	 0.592500358	 0.200000000
 0.054424713	 0.592500358	 0.200000000
 0.392361024	 0.354021333	 0.212382312
 0.417393344	 0.354021333	 0.215362007
 0.442425669	 0.354021333	 0.219024464
 0.467457979	 0.354021333	 0.223166873
 0.492490299	 0.354021333	 0.227100857
 0.517522619	 0.354021333	 0.229615361
 0.542554958	 0.354021333	 0.229615360
 0.567587269	 0.354021333	 0.227100857
 0.592619598	 0.354021333	 0.223166872
 0.617651909	 0.354021333	 0.219024462
 0.642684219	 0.354021333	 0.215362008
 0.667716549	 0.354021333	 0.212382312
 0.392361024	 0.397381135	 0.216139319
 0.417393344	 0.397381135	 0.221600239
 0.442425669	 0.397381135	 0.229617324
 0.467457979	 0.397381135	 0.241042132
 0.492490299	 0.397381135	 0.255250678
 0.517522619	 0.397381135	 0.266816403
 0.542554958	 0.397381135	 0.266816401
 0.567587269	 0.397381135	 0.255250678
 0.592619598	 0.397381135	 0.241042127
 0.617651909	 0.397381135	 0.229617320
 0.642684219	 0.397381135	 0.221600240
 0.667716549	 0.397381135	 0.216139318
 0.392361024	 0.440740944	 0.219025682
 0.417393344	 0.440740944	 0.227103331
 0.442425669	 0.440740944	 0.241044042
 0.467457979	 0.440740944	 0.266821446
 0.492490299	 0.440740944	 0.314950790
 0.517522619	 0.440740944	 0.379648222
 0.542554958	 0.440740944	 0.379648203
 0.567587269	 0.440740944	 0.314950790
 0.592619598	 0.440740944	 0.266821432
 0.617651909	 0.440740944	 0.241044035
 0.642684219	 0.440740944	 0.227103333
 0.667716549	 0.440740944	 0.219025681
 0.392361024	 0.484100739	 0.219025690
 0.417393344	 0.484100739	 0.227103348
 0.442425669	 0.484100739	 0.241044081
 0.467457979	 0.484100739	 0.266821547
 0.492490299	 0.484100739	 0.314951090
 0.517522619	 0.484100739	 0.379648954
 0.542554958	 0.484100739	 0.379648935
 0.567587269	 0.484100739	 0.314951090
 0.592619598	 0.484100739	 0.266821534
 0.617651909	 0.484100739	 0.241044074
 0.642684219	 0.484100739	 0.227103350
 0.667716549	 0.484100739	 0.219025689
 0.392361024	 0.527460552	 0.216139336
 0.417393344	 0.527460552	 0.221600270
 0.442425669	 0.527460552	 0.229617383
 0.467457979	 0.527460552	 0.241042244
 0.492490299	 0.527460552	 0.255250881
 0.517522619	 0.527460552	 0.266816701
 0.542554958	 0.527460552	 0.266816698
 0.567587269	 0.527460552	 0.255250881
 0.592619598	 0.527460552	 0.241042239
 0.617651909	 0.527460552	 0.229617379
 0.642684219	 0.527460552	 0.221600271
 0.667716549	 0.527460552	 0.216139335
 0.392361024	 0.570820347	 0.212382330
 0.417393344	 0.570820347	 0.215362034
 0.442425669	 0.570820347	 0.219024506
 0.467457979	 0.570820347	 0.223166935
 0.492490299	 0.570820347	 0.227100942
 0.517522619	 0.570820347	 0.229615462
 0.542554958	 0.570820347	 0.229615461
 0.567587269	 0.570820347	 0.227100942
 0.592619598	 0.570820347	 0.223166934
 0.617651909	 0.570820347	 0.219024504
 0.642684219	 0.570820347	 0.215362035
 0.667716549	 0.570820347	 0.212382329
 0.392361024	 0.614180160	 0.209177679
 0.417393344	 0.614180160	 0.210718652
 0.442425669	 0.614180160	 0.212381823
 0.467457979	 0.614180160	 0.214012524
 0.492490299	 0.614180160	 0.215361254
 0.517522619	 0.614180160	 0.216137905
 0.542554958	 0.614180160	 0.216137905
 0.567587269	 0.614180160	 0.215361254
 0.592619598	 0.614180160	 0.214012523
 0.617651909	 0.614180160	 0.212381823
 0.642684219	 0.614180160	 0.210718653
 0.667716549	 0.614180160	 0.209177679
 0.379844864	 0.332341531	 0.209737818
 0.404877184	 0.332341531	 0.211701211
 0.429909504	 0.332341531	 0.214012862
 0.454941824	 0.332341531	 0.216556917
 0.479974144	 0.332341531	 0.219023932
 0.505006464	 0.332341531	 0.220891674
 0.530038784	 0.332341531	 0.221598510
 0.555071095	 0.332341531	 0.220891674
 0.580103424	 0.332341531	 0.219023932
 0.605135734	 0.332341531	 0.216556918
 0.630168064	 0.332341531	 0.214012862
 0.655200394	 0.332341531	 0.211701210
 0.379844864	 0.375701333	 0.212627444
 0.404877184	 0.375701333	 0.216139075
 0.429909504	 0.375701333	 0.220892882
 0.454941824	 0.375701333	 0.227101812
 0.479974144	 0.375701333	 0.234404990
 0.505006464	 0.375701333	 0.241040556
 0.530038784	 0.375701333	 0.243860281
 0.555071095	 0.375701333	 0.241040558
 0.580103424	 0.375701333	 0.234404990
 0.605135734	 0.375701333	 0.227101815
 0.630168064	 0.375701333	 0.220892882
 0.655200394	 0.375701333	 0.216139073
 0.379844864	 0.419061142	 0.215362706
 0.404877184	 0.419061142	 0.220893608
 0.429909504	 0.419061142	 0.229617959
 0.454941824	 0.419061142	 0.243863481
 0.479974144	 0.419061142	 0.266819647
 0.505006464	 0.419061142	 0.297406567
 0.530038784	 0.419061142	 0.314945458
 0.555071095	 0.419061142	 0.297406578
 0.580103424	 0.419061142	 0.266819647
 0.605135734	 0.419061142	 0.243863488
 0.630168064	 0.419061142	 0.229617959
 0.655200394	 0.419061142	 0.220893605
 0.379844864	 0.462420946	 0.216558283
 0.404877184	 0.462420946	 0.223168761
 0.429909504	 0.462420946	 0.234407614
 0.454941824	 0.462420946	 0.255254588
 0.479974144	 0.462420946	 0.297411820
 0.505006464	 0.462420946	 0.379653049
 0.555071095	 0.462420946	 0.379653087
 0.580103424	 0.462420946	 0.297411820
 0.605135734	 0.462420946	 0.255254599
 0.630168064	 0.462420946	 0.234407614
 0.655200394	 0.462420946	 0.223168758
 0.379844864	 0.505780750	 0.215362706
 0.404877184	 0.505780750	 0.220893608
 0.429909504	 0.505780750	 0.229617959
 0.454941824	 0.505780750	 0.243863481
 0.479974144	 0.505780750	 0.266819646
 0.505006464	 0.505780750	 0.297406566
 0.530038784	 0.505780750	 0.314945457
 0.555071095	 0.505780750	 0.297406577
 0.580103424	 0.505780750	 0.266819646
 0.605135734	 0.505780750	 0.243863488
 0.630168064	 0.505780750	 0.229617959
 0.655200394	 0.505780750	 0.220893605
 0.379844864	 0.549140545	 0.212627445
 0.404877184	 0.549140545	 0.216139076
 0.429909504	 0.549140545	 0.220892884
 0.454941824	 0.549140545	 0.227101817
 0.479974144	 0.549140545	 0.234404997
 0.505006464	 0.549140545	 0.241040567
 0.530038784	 0.549140545	 0.243860293
 0.555071095	 0.549140545	 0.241040569
 0.580103424	 0.549140545	 0.234404997
 0.605135734	 0.549140545	 0.227101819
 0.630168064	 0.549140545	 0.220892884
 0.655200394	 0.549140545	 0.216139075
 0.379844864	 0.592500358	 0.209737818
 0.404877184	 0.592500358	 0.211701211
 0.429909504	 0.592500358	 0.214012862
 0.454941824	 0.592500358	 0.216556917
 0.479974144	 0.592500358	 0.219023932
 0.505006464	 0.592500358	 0.220891674
 0.530038784	 0.592500358	 0.221598511
 0.555071095	 0.592500358	 0.220891675
 0.580103424	 0.592500358	 0.219023932
 0.605135734	 0.592500358	 0.216556918
 0.630168064	 0.592500358	 0.214012862
 0.655200394	 0.592500358	 0.211701210
 0.993136705	 0.354021333	 0.200000000
 0.993136705	 0.397381135	 0.200000000
 0.993136705	 0.440740944	 0.200000000
 0.993136705	 0.484100739	 0.200000000
 0.993136705	 0.527460552	 0.200000000
 0.993136705	 0.570820347	 0.200000000
 0.993136705	 0.614180160	 0.200000000
 0.980620544	 0.332341531	 0.200000000
 0.980620544	 0.375701333	 0.200000000
 0.980620544	 0.419061142	 0.200000000
 0.980620544	 0.462420946	 0.200000000
 0.980620544	 0.505780750	 0.200000000
 0.980620544	 0.549140545	 0.200000000
 0.980620544	 0.592500358	 0.200000000
 0.016876228	 0.657539953	 0.200000000
 0.041908539	 0.657539953	 0.200000000
 0.066940868	 0.657539953	 0.200000000
 0.016876228	 0.700899755	 0.200000000
 0.041908539	 0.700899755	 0.200000000
 0.066940868	 0.700899755	 0.200000000
 0.016876228	 0.744259564	 0.200000000
 0.041908539	 0.744259564	 0.200000000
 0.066940868	 0.744259564	 0.200000000
 0.016876228	 0.787619358	 0.200000000
 0.041908539	 0.787619358	 0.200000000
 0.066940868	 0.787619358	 0.200000000
 0.016876228	 0.830979172	 0.200000000
 0.041908539	 0.830979172	 0.200000000
 0.066940868	 0.830979172	 0.200000000
 0.016876228	 0.874338966	 0.200000000
 0.041908539	 0.874338966	 0.200000000
 0.066940868	 0.874338966	 0.200000000
 0.016876228	 0.917698780	 0.200000000
 0.041908539	 0.917698780	 0.200000000
 0.066940868	 0.917698780	 0.200000000
 0.004360054	 0.635860151	 0.200000000
 0.029392383	 0.635860151	 0.200000000
 0.054424713	 0.635860151	 0.200000000
 0.004360054	 0.679219953	 0.200000000
 0.029392383	 0.679219953	 0.200000000
 0.054424713	 0.679219953	 0.200000000
 0.004360054	 0.722579762	 0.200000000
 0.029392383	 0.722579762	 0.200000000
 0.054424713	 0.722579762	 0.200000000
 0.004360054	 0.765939566	 0.200000000
 0.029392383	 0.765939566	 0.200000000
 0.054424713	 0.765939566	 0.200000000
 0.004360054	 0.809299370	 0.200000000
 0.029392383	 0.809299370	 0.200000000
 0.054424713	 0.809299370	 0.200000000
 0.004360054	 0.852659165	 0.200000000
 0.029392383	 0.852659165	 0.200000000
 0.054424713	 0.852659165	 0.200000000
 0.004360054	 0.896018978	 0.200000000
 0.029392383	 0.896018978	 0.200000000
 0.054424713	 0.896018978	 0.200000000
 0.392361024	 0.657539953	 0.200000000
 0.417393344	 0.657539953	 0.200000000
 0.442425669	 0.657539953	 0.200000000
 0.467457979	 0.657539953	 0.200000000
 0.492490299	 0.657539953	 0.200000000
 0.517522619	 0.657539953	 0.200000000
 0.542554958	 0.657539953	 0.200000000
 0.567587269	 0.657539953	 0.200000000
 0.592619598	 0.657539953	 0.200000000
 0.617651909	 0.657539953	 0.200000000
 0.642684219	 0.657539953	 0.200000000
 0.667716549	 0.657539953	 0.200000000
 0.392361024	 0.700899755	 0.200000000
 0.417393344	 0.700899755	 0.200000000
 0.442425669	 0.700899755	 0.200000000
 0.467457979	 0.700899755	 0.200000000
 0.492490299	 0.700899755	 0.200000000
 0.517522619	 0.700899755	 0.200000000
 0.542554958	 0.700899755	 0.200000000
 0.567587269	 0.700899755	 0.200000000
 0.592619598	 0.700899755	 0.200000000
 0.617651909	 0.700899755	 0.200000000
 0.642684219	 0.700899755	 0.200000000
 0.667716549	 0.700899755	 0.200000000
 0.392361024	 0.744259564	 0.200000000
 0.417393344	 0.744259564	 0.200000000
 0.442425669	 0.744259564	 0.200000000
 0.467457979	 0.744259564	 0.200000000
 0.492490299	 0.744259564	 0.200000000
 0.517522619	 0.744259564	 0.200000000
 0.542554958	 0.744259564	 0.200000000
 0.567587269	 0.744259564	 0.200000000
 0.592619598	 0.744259564	 0.200000000
 0.617651909	 0.744259564	 0.200000000
 0.642684219	 0.744259564	 0.200000000
 0.667716549	 0.744259564	 0.200000000
 0.392361024	 0.787619358	 0.200000000
 0.417393344	 0.787619358	 0.200000000
 0.442425669	 0.787619358	 0.200000000
 0.467457979	 0.787619358	 0.200000000
 0.492490299	 0.787619358	 0.200000000
 0.517522619	 0.787619358	 0.200000000
 0.542554958	 0.787619358	 0.200000000
 0.567587269	 0.787619358	 0.200000000
 0.592619598	 0.787619358	 0.200000000
 0.617651909	 0.787619358	 0.200000000
 0.642684219	 0.787619358	 0.200000000
 0.667716549	 0.787619358	 0.200000000
 0.392361024	 0.830979172	 0.200000000
 0.417393344	 0.830979172	 0.200000000
 0.442425669	 0.830979172	 0.200000000
 0.467457979	 0.830979172	 0.200000000
 0.492490299	 0.830979172	 0.200000000
 0.517522619	 0.830979172	 0.200000000
 0.542554958	 0.830979172	 0.200000000
 0.567587269	 0.830979172	 0.200000000
 0.592619598	 0.830979172	 0.200000000
 0.617651909	 0.830979172	 0.200000000
 0.642684219	 0.830979172	 0.200000000
 0.667716549	 0.830979172	 0.200000000
 0.392361024	 0.874338966	 0.200000000
 0.417393344	 0.874338966	 0.200000000
 0.442425669	 0.874338966	 0.200000000
 0.467457979	 0.874338966	 0.200000000
 0.492490299	 0.874338966	 0.200000000
 0.517522619	 0.874338966	 0.200000000
 0.542554958	 0.874338966	 0.200000000
 0.567587269	 0.874338966	 0.200000000
 0.592619598	 0.874338966	 0.200000000
 0.617651909	 0.874338966	 0.200000000
 0.642684219	 0.874338966	 0.200000000
 0.667716549	 0.874338966	 0.200000000
 0.392361024	 0.917698780	 0.200000000
 0.417393344	 0.917698780	 0.200000000
 0.442425669	 0.917698780	 0.200000000
 0.467457979	 0.917698780	 0.200000000
 0.492490299	 0.917698780	 0.200000000
 0.517522619	 0.917698780	 0.200000000
 0.542554958	 0.917698780	 0.200000000
 0.567587269	 0.917698780	 0.200000000
 0.592619598	 0.917698780	 0.200000000
 0.617651909	 0.917698780	 0.200000000
 0.642684219	 0.917698780	 0.200000000
 0.667716549	 0.917698780	 0.200000000
 0.379844864	 0.635860151	 0.200000000
 0.404877184	 0.635860151	 0.200000000
 0.429909504	 0.635860151	 0.200000000
 0.454941824	 0.635860151	 0.200000000
 0.479974144	 0.635860151	 0.200000000
 0.505006464	 0.635860151	 0.200000000
 0.530038784	 0.635860151	 0.200000000
 0.555071095	 0.635860151	 0.200000000
 0.580103424	 0.635860151	 0.200000000
 0.605135734	 0.635860151	 0.200000000
 0.630168064	 0.635860151	 0.200000000
 0.655200394	 0.635860151	 0.200000000
 0.379844864	 0.679219953	 0.200000000
 0.404877184	 0.679219953	 0.200000000
 0.429909504	 0.679219953	 0.200000000
 0.454941824	 0.679219953	 0.200000000
 0.479974144	 0.679219953	 0.200000000
 0.505006464	 0.679219953	 0.200000000
 0.530038784	 0.679219953	 0.200000000
 0.555071095	 0.679219953	 0.200000000
 0.580103424	 0.679219953	 0.200000000
 0.605135734	 0.679219953	 0.200000000
 0.630168064	 0.679219953	 0.200000000
 0.655200394	 0.679219953	 0.200000000
 0.379844864	 0.722579762	 0.200000000
 0.404877184	 0.722579762	 0.200000000
 0.429909504	 0.722579762	 0.200000000
 0.454941824	 0.722579762	 0.200000000
 0.479974144	 0.722579762	 0.200000000
 0.505006464	 0.722579762	 0.200000000
 0.530038784	 0.722579762	 0.200000000
 0.555071095	 0.722579762	 0.200000000
 0.580103424	 0.722579762	 0.200000000
 0.605135734	 0.722579762	 0.200000000
 0.630168064	 0.722579762	 0.200000000
 0.655200394	 0.722579762	 0.200000000
 0.379844864	 0.765939566	 0.200000000
 0.404877184	 0.765939566	 0.200000000
 0.429909504	 0.765939566	 0.200000000
 0.454941824	 0.765939566	 0.200000000
 0.479974144	 0.765939566	 0.200000000
 0.505006464	 0.765939566	 0.200000000
 0.530038784	 0.765939566	 0.200000000
 0.555071095	 0.765939566	 0.200000000
 0.580103424	 0.765939566	 0.200000000
 0.605135734	 0.765939566	 0.200000000
 0.630168064	 0.765939566	 0.200000000
 0.655200394	 0.765939566	 0.200000000
 0.379844864	 0.809299370	 0.200000000
 0.404877184	 0.809299370	 0.200000000
 0.429909504	 0.809299370	 0.200000000
 0.454941824	 0.809299370	 0.200000000
 0.479974144	 0.809299370	 0.200000000
 0.505006464	 0.809299370	 0.200000000
 0.530038784	 0.809299370	 0.200000000
 0.555071095	 0.809299370	 0.200000000
 0.580103424	 0.809299370	 0.200000000
 0.605135734	 0.809299370	 0.200000000
 0.630168064	 0.809299370	 0.200000000
 0.655200394	 0.809299370	 0.200000000
 0.379844864	 0.852659165	 0.200000000
 0.404877184	 0.852659165	 0.200000000
 0.429909504	 0.852659165	 0.200000000
 0.454941824	 0.852659165	 0.200000000
 0.479974144	 0.852659165	 0.200000000
 0.505006464	 0.852659165	 0.200000000
 0.530038784	 0.852659165	 0.200000000
 0.555071095	 0.852659165	 0.200000000
 0.580103424	 0.852659165	 0.200000000
 0.605135734	 0.852659165	 0.200000000
 0.630168064	 0.852659165	 0.200000000
 0.655200394	 0.852659165	 0.200000000
 0.379844864	 0.896018978	 0.200000000
 0.404877184	 0.896018978	 0.200000000
 0.429909504	 0.896018978	 0.200000000
 0.454941824	 0.896018978	 0.200000000
 0.479974144	 0.896018978	 0.200000000
 0.505006464	 0.896018978	 0.200000000
 0.530038784	 0.896018978	 0.200000000
 0.555071095	 0.896018978	 0.200000000
 0.580103424	 0.896018978	 0.200000000
 0.605135734	 0.896018978	 0.200000000
 0.630168064	 0.896018978	 0.200000000
 0.655200394	 0.896018978	 0.200000000
 0.993136705	 0.657539953	 0.200000000
 0.993136705	 0.700899755	 0.200000000
 0.993136705	 0.744259564	 0.200000000
 0.993136705	 0.787619358	 0.200000000
 0.993136705	 0.830979172	 0.200000000
 0.993136705	 0.874338966	 0.200000000
 0.993136705	 0.917698780	 0.200000000
 0.980620544	 0.635860151	 0.200000000
 0.980620544	 0.679219953	 0.200000000
 0.980620544	 0.722579762	 0.200000000
 0.980620544	 0.765939566	 0.200000000
 0.980620544	 0.809299370	 0.200000000
 0.980620544	 0.852659165	 0.200000000
 0.980620544	 0.896018978	 0.200000000
 0.016876228	 0.961058572	 0.200000000
 0.041908539	 0.961058572	 0.200000000
 0.066940868	 0.961058572	 0.200000000
 0.004360054	 0.939378770	 0.200000000
 0.029392383	 0.939378770	 0.200000000
 0.054424713	 0.939378770	 0.200000000
 0.004360054	 0.982738572	 0.200000000
 0.029392383	 0.982738572	 0.200000000
 0.054424713	 0.982738572	 0.200000000
 0.392361024	 0.961058572	 0.200000000
 0.417393344	 0.961058572	 0.200000000
 0.442425669	 0.961058572	 0.200000000
 0.467457979	 0.961058572	 0.200000000
 0.492490299	 0.961058572	 0.200000000
 0.517522619	 0.961058572	 0.200000000
 0.542554958	 0.961058572	 0.200000000
 0.567587269	 0.961058572	 0.200000000
 0.592619598	 0.961058572	 0.200000000
 0.617651909	 0.961058572	 0.200000000
 0.642684219	 0.961058572	 0.200000000
 0.667716549	 0.961058572	 0.200000000
 0.379844864	 0.939378770	 0.200000000
 0.404877184	 0.939378770	 0.200000000
 0.429909504	 0.939378770	 0.200000000
 0.454941824	 0.939378770	 0.200000000
 0.479974144	 0.939378770	 0.200000000
 0.505006464	 0.939378770	 0.200000000
 0.530038784	 0.939378770	 0.200000000
 0.555071095	 0.939378770	 0.200000000
 0.580103424	 0.939378770	 0.200000000
 0.605135734	 0.939378770	 0.200000000
 0.630168064	 0.939378770	 0.200000000
 0.655200394	 0.939378770	 0.200000000
 0.379844864	 0.982738572	 0.200000000
 0.404877184	 0.982738572	 0.200000000
 0.429909504	 0.982738572	 0.200000000
 0.454941824	 0.982738572	 0.200000000
 0.479974144	 0.982738572	 0.200000000
 0.505006464	 0.982738572	 0.200000000
 0.530038784	 0.982738572	 0.200000000
 0.555071095	 0.982738572	 0.200000000
 0.580103424	 0.982738572	 0.200000000
 0.605135734	 0.982738572	 0.200000000
 0.630168064	 0.982738572	 0.200000000
 0.655200394	 0.982738572	 0.200000000
 0.993136705	 0.961058572	 0.200000000
 0.980620544	 0.939378770	 0.200000000
 0.980620544	 0.982738572	 0.200000000
 0.091973184	 0.007142921	 0.200000000
 0.117005504	 0.007142921	 0.200000000
 0.142037828	 0.007142921	 0.200000000
 0.167070139	 0.007142921	 0.200000000
 0.192102459	 0.007142921	 0.200000000
 0.217134779	 0.007142921	 0.200000000
 0.242167118	 0.007142921	 0.200000000
 0.267199429	 0.007142921	 0.200000000
 0.292231758	 0.007142921	 0.200000000
 0.317264069	 0.007142921	 0.200000000
 0.342296379	 0.007142921	 0.200000000
 0.367328709	 0.007142921	 0.200000000
 0.692748864	 0.007142921	 0.200000000
 0.717781184	 0.007142921	 0.200000000
 0.742813509	 0.007142921	 0.200000000
 0.767845820	 0.007142921	 0.200000000
 0.792878139	 0.007142921	 0.200000000
 0.817910459	 0.007142921	 0.200000000
 0.842942799	 0.007142921	 0.200000000
 0.867975109	 0.007142921	 0.200000000
 0.893007439	 0.007142921	 0.200000000
 0.918039749	 0.007142921	 0.200000000
 0.943072060	 0.007142921	 0.200000000
 0.968104389	 0.007142921	 0.200000000
 0.091973184	 0.050502714	 0.200000000
 0.117005504	 0.050502714	 0.200000000
 0.142037828	 0.050502714	 0.200000000
 0.167070139	 0.050502714	 0.200000000
 0.192102459	 0.050502714	 0.200000000