POSCAR_of_example/config_simple
1.0
   30.00000	    0.00000	    0.00000
    0.00000	   30.00000	    0.00000
    0.00000	    0.00000	    9.99954
 B   N  
 160   161  
Direct
 0.041074133	 0.114577317	 0.500000000
 0.124515200	 0.114577317	 0.500000000
 0.207956282	 0.114577317	 0.500000000
 0.291397317	 0.114577317	 0.500000000
 0.374838384	 0.114577317	 0.500000000
 0.458279450	 0.114577317	 0.500000000
 0.541720581	 0.114577317	 0.500000000
 0.625161616	 0.114577317	 0.500000000
 0.708602715	 0.114577317	 0.500000000
 0.792043750	 0.114577317	 0.500000000
 0.875484784	 0.114577317	 0.500000000
 0.958925883	 0.114577317	 0.500000000
 0.041074133	 0.259109990	 0.500000000
 0.124515200	 0.259109990	 0.500000000
 0.207956282	 0.259109990	 0.500000000
 0.291397317	 0.259109990	 0.500000000
 0.374838384	 0.259109990	 0.500000000
 0.458279450	 0.259109990	 0.500000000
 0.541720581	 0.259109990	 0.500000000
 0.625161616	 0.259109990	 0.500000000
 0.708602715	 0.259109990	 0.500000000
 0.792043750	 0.259109990	 0.500000000
 0.875484784	 0.259109990	 0.500000000
 0.958925883	 0.259109990	 0.500000000
 0.041074133	 0.403642686	 0.500000000
 0.124515200	 0.403642686	 0.500000000
 0.207956282	 0.403642686	 0.500000000
 0.291397317	 0.403642686	 0.500000000
 0.374838384	 0.403642686	 0.500000000
 0.458279450	 0.403642686	 0.500000000
 0.541720581	 0.403642686	 0.500000000
 0.625161616	 0.403642686	 0.500000000
 0.708602715	 0.403642686	 0.500000000
 0.792043750	 0.403642686	 0.500000000
 0.875484784	 0.403642686	 0.500000000
 0.958925883	 0.403642686	 0.500000000
 0.041074133	 0.548175335	 0.500000000
 0.124515200	 0.548175335	 0.500000000
 0.207956282	 0.548175335	 0.500000000
 0.291397317	 0.548175335	 0.500000000
 0.374838384	 0.548175335	 0.500000000
 0.458279450	 0.548175335	 0.500000000
 0.541720581	 0.548175335	 0.500000000
 0.625161616	 0.548175335	 0.500000000
 0.708602715	 0.548175335	 0.500000000
 0.792043750	 0.548175335	 0.500000000
 0.875484784	 0.548175335	 0.500000000
 0.958925883	 0.548175335	 0.500000000
 0.041074133	 0.692708047	 0.500000000
 0.124515200	 0.692708047	 0.500000000
 0.207956282	 0.692708047	 0.500000000
 0.291397317	 0.692708047	 0.500000000
 0.374838384	 0.692708047	 0.500000000
 0.458279450	 0.692708047	 0.500000000
 0.541720581	 0.692708047	 0.500000000
 0.625161616	 0.692708047	 0.500000000
 0.708602715	 0.692708047	 0.500000000
 0.792043750	 0.692708047	 0.500000000
 0.875484784	 0.692708047	 0.500000000
 0.958925883	 0.692708047	 0.500000000
 0.041074133	 0.837240696	 0.500000000
 0.124515200	 0.837240696	 0.500000000
 0.207956282	 0.837240696	 0.500000000
 0.291397317	 0.837240696	 0.500000000
 0.374838384	 0.837240696	 0.500000000
 0.458279450	 0.837240696	 0.500000000
 0.541720581	 0.837240696	 0.500000000
 0.625161616	 0.837240696	 0.500000000
 0.708602715	 0.837240696	 0.500000000
 0.792043750	 0.837240696	 0.500000000
 0.875484784	 0.837240696	 0.500000000
 0.958925883	 0.837240696	 0.500000000
 0.041074133	 0.981773408	 0.500000000
 0.124515200	 0.981773408	 0.500000000
 0.207956282	 0.981773408	 0.500000000
 0.291397317	 0.981773408	 0.500000000
 0.374838384	 0.981773408	 0.500000000
 0.458279450	 0.981773408	 0.500000000
 0.541720581	 0.981773408	 0.500000000
 0.625161616	 0.981773408	 0.500000000
 0.708602715	 0.981773408	 0.500000000
 0.792043750	 0.981773408	 0.500000000
 0.875484784	 0.981773408	 0.500000000
 0.958925883	 0.981773408	 0.500000000
 0.082794666	 0.042311310	 0.500000000
 0.166235733	 0.042311310	 0.500000000
 0.249676800	 0.042311310	 0.500000000
 0.333117866	 0.042311310	 0.500000000
 0.416558934	 0.042311310	 0.500000000
 0.500000000	 0.042311310	 0.500000000
 0.583441035	 0.042311310	 0.500000000
 0.666882134	 0.042311310	 0.500000000
 0.750323168	 0.042311310	 0.500000000
 0.833764267	 0.042311310	 0.500000000
 0.917205365	 0.042311310	 0.500000000
 0.082794666	 0.186843983	 0.500000000
 0.166235733	 0.186843983	 0.500000000
 0.249676800	 0.186843983	 0.500000000
 0.333117866	 0.186843983	 0.500000000
 0.416558934	 0.186843983	 0.500000000
 0.500000000	 0.186843983	 0.500000000
 0.583441035	 0.186843983	 0.500000000
 0.666882134	 0.186843983	 0.500000000
 0.750323168	 0.186843983	 0.500000000
 0.833764267	 0.186843983	 0.500000000
 0.917205365	 0.186843983	 0.500000000
 0.082794666	 0.331376680	 0.500000000
 0.166235733	 0.331376680	 0.500000000
 0.249676800	 0.331376680	 0.500000000
 0.333117866	 0.331376680	 0.500000000
 0.416558934	 0.331376680	 0.500000000
 0.500000000	 0.331376680	 0.500000000
 0.583441035	 0.331376680	 0.500000000
 0.666882134	 0.331376680	 0.500000000
 0.750323168	 0.331376680	 0.500000000
 0.833764267	 0.331376680	 0.500000000
 0.917205365	 0.331376680	 0.500000000
 0.082794666	 0.475909360	 0.500000000
 0.166235733	 0.475909360	 0.500000000
 0.249676800	 0.475909360	 0.500000000
 0.333117866	 0.475909360	 0.500000000
 0.416558934	 0.475909360	 0.500000000
 0.583441035	 0.475909360	 0.500000000
 0.666882134	 0.475909360	 0.500000000
 0.750323168	 0.475909360	 0.500000000
 0.833764267	 0.475909360	 0.500000000
 0.917205365	 0.475909360	 0.500000000
 0.082794666	 0.620442041	 0.500000000
 0.166235733	 0.620442041	 0.500000000
 0.249676800	 0.620442041	 0.500000000
 0.333117866	 0.620442041	 0.500000000
 0.416558934	 0.620442041	 0.500000000
 0.500000000	 0.620442041	 0.500000000
 0.583441035	 0.620442041	 0.500000000
 0.666882134	 0.620442041	 0.500000000
 0.750323168	 0.620442041	 0.500000000
 0.833764267	 0.620442041	 0.500000000
 0.917205365	 0.620442041	 0.500000000
 0.082794666	 0.764974690	 0.500000000
 0.166235733	 0.764974690	 0.500000000
 0.249676800	 0.764974690	 0.500000000
 0.333117866	 0.764974690	 0.500000000
 0.416558934	 0.764974690	 0.500000000
 0.500000000	 0.764974690	 0.500000000
 0.583441035	 0.764974690	 0.500000000
 0.666882134	 0.764974690	 0.500000000
 0.750323168	 0.764974690	 0.500000000
 0.833764267	 0.764974690	 0.500000000
 0.917205365	 0.764974690	 0.500000000
 0.082794666	 0.909507401	 0.500000000
 0.166235733	 0.909507401	 0.500000000
 0.249676800	 0.909507401	 0.500000000
 0.333117866	 0.909507401	 0.500000000
 0.416558934	 0.909507401	 0.500000000
 0.500000000	 0.909507401	 0.500000000
 0.583441035	 0.909507401	 0.500000000
 0.666882134	 0.909507401	 0.500000000
 0.750323168	 0.909507401	 0.500000000
 0.833764267	 0.909507401	 0.500000000
 0.917205365	 0.909507401	 0.500000000
 0.041074133	 0.018226411	 0.500000000
 0.124515200	 0.018226411	 0.500000000
 0.207956282	 0.018226411	 0.500000000
 0.291397317	 0.018226411	 0.500000000
 0.374838384	 0.018226411	 0.500000000
 0.458279450	 0.018226411	 0.500000000
 0.541720581	 0.018226411	 0.500000000
 0.625161616	 0.018226411	 0.500000000
 0.708602715	 0.018226411	 0.500000000
 0.792043750	 0.018226411	 0.500000000
 0.875484784	 0.018226411	 0.500000000
 0.958925883	 0.018226411	 0.500000000
 0.041074133	 0.162759097	 0.500000000
 0.124515200	 0.162759097	 0.500000000
 0.207956282	 0.162759097	 0.500000000
 0.291397317	 0.162759097	 0.500000000
 0.374838384	 0.162759097	 0.500000000
 0.458279450	 0.162759097	 0.500000000
 0.541720581	 0.162759097	 0.500000000
 0.625161616	 0.162759097	 0.500000000
 0.708602715	 0.162759097	 0.500000000
 0.792043750	 0.162759097	 0.500000000
 0.875484784	 0.162759097	 0.500000000
 0.958925883	 0.162759097	 0.500000000
 0.041074133	 0.307291762	 0.500000000
 0.124515200	 0.307291762	 0.500000000
 0.207956282	 0.307291762	 0.500000000
 0.291397317	 0.307291762	 0.500000000
 0.374838384	 0.307291762	 0.500000000
 0.458279450	 0.307291762	 0.500000000
 0.541720581	 0.307291762	 0.500000000
 0.625161616	 0.307291762	 0.500000000
 0.708602715	 0.307291762	 0.500000000
 0.792043750	 0.307291762	 0.500000000
 0.875484784	 0.307291762	 0.500000000
 0.958925883	 0.307291762	 0.500000000
 0.041074133	 0.451824442	 0.500000000
 0.124515200	 0.451824442	 0.500000000
 0.207956282	 0.451824442	 0.500000000
 0.291397317	 0.451824442	 0.500000000
 0.374838384	 0.451824442	 0.500000000
 0.458279450	 0.451824442	 0.500000000
 0.541720581	 0.451824442	 0.500000000
 0.625161616	 0.451824442	 0.500000000
 0.708602715	 0.451824442	 0.500000000
 0.792043750	 0.451824442	 0.500000000
 0.875484784	 0.451824442	 0.500000000
 0.958925883	 0.451824442	 0.500000000
 0.041074133	 0.596357187	 0.500000000
 0.124515200	 0.596357187	 0.500000000
 0.207956282	 0.596357187	 0.500000000
 0.291397317	 0.596357187	 0.500000000
 0.374838384	 0.596357187	 0.500000000
 0.458279450	 0.596357187	 0.500000000
 0.541720581	 0.596357187	 0.500000000
 0.625161616	 0.596357187	 0.500000000
 0.708602715	 0.596357187	 0.500000000
 0.792043750	 0.596357187	 0.500000000
 0.875484784	 0.596357187	 0.500000000
 0.958925883	 0.596357187	 0.500000000
 0.041074133	 0.740889835	 0.500000000
 0.124515200	 0.740889835	 0.500000000
 0.207956282	 0.740889835	 0.500000000
 0.291397317	 0.740889835	 0.500000000
 0.374838384	 0.740889835	 0.500000000
 0.458279450	 0.740889835	 0.500000000
 0.541720581	 0.740889835	 0.500000000
 0.625161616	 0.740889835	 0.500000000
 0.708602715	 0.740889835	 0.500000000
 0.792043750	 0.740889835	 0.500000000
 0.875484784	 0.740889835	 0.500000000
 0.958925883	 0.740889835	 0.500000000
 0.041074133	 0.885422484	 0.500000000
 0.124515200	 0.885422484	 0.500000000
 0.207956282	 0.885422484	 0.500000000
 0.291397317	 0.885422484	 0.500000000
 0.374838384	 0.885422484	 0.500000000
 0.458279450	 0.885422484	 0.500000000
 0.541720581	 0.885422484	 0.500000000
 0.625161616	 0.885422484	 0.500000000
 0.708602715	 0.885422484	 0.500000000
 0.792043750	 0.885422484	 0.500000000
 0.875484784	 0.885422484	 0.500000000
 0.958925883	 0.885422484	 0.500000000
 0.082794666	 0.090492853	 0.500000000
 0.166235733	 0.090492853	 0.500000000
 0.249676800	 0.090492853	 0.500000000
 0.333117866	 0.090492853	 0.500000000
 0.416558934	 0.090492853	 0.500000000
 0.500000000	 0.090492853	 0.500000000
 0.583441035	 0.090492853	 0.500000000
 0.666882134	 0.090492853	 0.500000000
 0.750323168	 0.090492853	 0.500000000
 0.833764267	 0.090492853	 0.500000000
 0.917205365	 0.090492853	 0.500000000
 0.082794666	 0.235025518	 0.500000000
 0.166235733	 0.235025518	 0.500000000
 0.249676800	 0.235025518	 0.500000000
 0.333117866	 0.235025518	 0.500000000
 0.416558934	 0.235025518	 0.500000000
 0.500000000	 0.235025518	 0.500000000
 0.583441035	 0.235025518	 0.500000000
 0.666882134	 0.235025518	 0.500000000
 0.750323168	 0.235025518	 0.500000000
 0.833764267	 0.235025518	 0.500000000
 0.917205365	 0.235025518	 0.500000000
 0.082794666	 0.379558214	 0.500000000
 0.166235733	 0.379558214	 0.500000000
 0.249676800	 0.379558214	 0.500000000
 0.333117866	 0.379558214	 0.500000000
 0.416558934	 0.379558214	 0.500000000
 0.500000000	 0.379558214	 0.500000000
 0.583441035	 0.379558214	 0.500000000
 0.666882134	 0.379558214	 0.500000000
 0.750323168	 0.379558214	 0.500000000
 0.833764267	 0.379558214	 0.500000000
 0.917205365	 0.379558214	 0.500000000
 0.082794666	 0.524090863	 0.500000000
 0.166235733	 0.524090863	 0.500000000
 0.249676800	 0.524090863	 0.500000000
 0.333117866	 0.524090863	 0.500000000
 0.416558934	 0.524090863	 0.500000000
 0.500000000	 0.524090863	 0.500000000
 0.583441035	 0.524090863	 0.500000000
 0.666882134	 0.524090863	 0.500000000
 0.750323168	 0.524090863	 0.500000000
 0.833764267	 0.524090863	 0.500000000
 0.917205365	 0.524090863	 0.500000000
 0.082794666	 0.668623574	 0.500000000
 0.166235733	 0.668623574	 0.500000000
 0.249676800	 0.668623574	 0.500000000
 0.333117866	 0.668623574	 0.500000000
 0.416558934	 0.668623574	 0.500000000
 0.500000000	 0.668623574	 0.500000000
 0.583441035	 0.668623574	 0.500000000
 0.666882134	 0.668623574	 0.500000000
 0.750323168	 0.668623574	 0.500000000
 0.833764267	 0.668623574	 0.500000000
 0.917205365	 0.668623574	 0.500000000
 0.082794666	 0.813156223	 0.500000000
 0.166235733	 0.813156223	 0.500000000
 0.249676800	 0.813156223	 0.500000000
 0.333117866	 0.813156223	 0.500000000
 0.416558934	 0.813156223	 0.500000000
 0.500000000	 0.813156223	 0.500000000
 0.583441035	 0.813156223	 0.500000000
 0.666882134	 0.813156223	 0.500000000
 0.750323168	 0.813156223	 0.500000000
 0.833764267	 0.813156223	 0.500000000
 0.917205365	 0.813156223	 0.500000000
 0.082794666	 0.957688936	 0.500000000
 0.166235733	 0.957688936	 0.500000000
 0.249676800	 0.957688936	 0.500000000
 0.333117866	 0.957688936	 0.500000000
 0.416558934	 0.957688936	 0.500000000
 0.500000000	 0.957688936	 0.500000000
 0.583441035	 0.957688936	 0.500000000
 0.666882134	 0.957688936	 0.500000000
 0.750323168	 0.957688936	 0.500000000
 0.833764267	 0.957688936	 0.500000000
 0.917205365	 0.957688936	 0.500000000
