POSCAR_of_bath_1
1.0
   49.87303	    0.00000	    0.00000
    0.00000	   49.41277	    0.00000
    0.00000	    0.00000	   49.21483
 B   N  
 7552   7551  
Direct
 0.002545865	 0.970937675	 0.081556921
 0.002545865	 1.000000000	 0.015953931
 0.002545865	 0.970937675	 0.212763104
 0.002545865	 0.970937675	 0.343969287
 0.002545865	 1.000000000	 0.147160114
 0.002545865	 1.000000000	 0.278366297
 0.002545865	 0.970937675	 0.475175470
 0.002545865	 0.970937675	 0.606381654
 0.002545865	 1.000000000	 0.409572277
 0.002545865	 1.000000000	 0.540778460
 0.002545865	 0.970937675	 0.737587634
 0.002545865	 0.970937675	 0.868793817
 0.002545865	 1.000000000	 0.671984644
 0.002545865	 1.000000000	 0.803190827
 0.002545865	 0.970937675	 1.000000000
 0.002545865	 1.000000000	 0.934397010
 0.002545865	 0.535004413	 0.081556921
 0.002545865	 0.447817639	 0.081556921
 0.027482188	 0.491411026	 0.081556921
 0.002545865	 0.564066536	 0.015953931
 0.002545865	 0.476879762	 0.015953931
 0.027482188	 0.520473149	 0.015953931
 0.002545865	 0.535004413	 0.212763104
 0.002545865	 0.535004413	 0.343969287
 0.002545865	 0.447817639	 0.212763104
 0.002545865	 0.447817639	 0.343969287
 0.027482188	 0.491411026	 0.212763104
 0.027482188	 0.491411026	 0.343969287
 0.002545865	 0.564066536	 0.147160114
 0.002545865	 0.564066536	 0.278366297
 0.002545865	 0.476879762	 0.147160114
 0.002545865	 0.476879762	 0.278366297
 0.027482188	 0.520473149	 0.147160114
 0.027482188	 0.520473149	 0.278366297
 0.002545865	 0.535004413	 0.475175470
 0.002545865	 0.535004413	 0.606381654
 0.002545865	 0.447817639	 0.475175470
 0.002545865	 0.447817639	 0.606381654
 0.027482188	 0.491411026	 0.475175470
 0.027482188	 0.491411026	 0.606381654
 0.002545865	 0.564066536	 0.409572277
 0.002545865	 0.564066536	 0.540778460
 0.002545865	 0.476879762	 0.409572277
 0.002545865	 0.476879762	 0.540778460
 0.027482188	 0.520473149	 0.409572277
 0.027482188	 0.520473149	 0.540778460
 0.002545865	 0.535004413	 0.737587634
 0.002545865	 0.535004413	 0.868793817
 0.002545865	 0.447817639	 0.737587634
 0.002545865	 0.447817639	 0.868793817
 0.027482188	 0.491411026	 0.737587634
 0.027482188	 0.491411026	 0.868793817
 0.002545865	 0.564066536	 0.671984644
 0.002545865	 0.564066536	 0.803190827
 0.002545865	 0.476879762	 0.671984644
 0.002545865	 0.476879762	 0.803190827
 0.027482188	 0.520473149	 0.671984644
 0.027482188	 0.520473149	 0.803190827
 0.002545865	 0.535004413	 1.000000000
 0.002545865	 0.447817639	 1.000000000
 0.027482188	 0.491411026	 1.000000000
 0.002545865	 0.564066536	 0.934397010
 0.002545865	 0.476879762	 0.934397010
 0.027482188	 0.520473149	 0.934397010
 0.002545865	 0.883751103	 0.081556921
 0.027482188	 0.927344288	 0.081556921
 0.052418512	 0.970937675	 0.081556921
 0.002545865	 0.796564329	 0.081556921
 0.027482188	 0.840157716	 0.081556921
 0.052418512	 0.883751103	 0.081556921
 0.077354835	 0.927344288	 0.081556921
 0.002545865	 0.709377758	 0.081556921
 0.027482188	 0.752970943	 0.081556921
 0.052418512	 0.796564329	 0.081556921
 0.077354835	 0.840157716	 0.081556921
 0.102291359	 0.883751103	 0.081556921
 0.002545865	 0.622190984	 0.081556921
 0.027482188	 0.665784371	 0.081556921
 0.052418512	 0.709377758	 0.081556921
 0.077354835	 0.752970943	 0.081556921
 0.102291359	 0.796564329	 0.081556921
 0.127227682	 0.840157716	 0.081556921
 0.027482188	 0.578597597	 0.081556921
 0.052418512	 0.622190984	 0.081556921
 0.077354835	 0.665784371	 0.081556921
 0.102291359	 0.709377758	 0.081556921
 0.127227682	 0.752970943	 0.081556921
 0.152164005	 0.796564329	 0.081556921
 0.052418512	 0.535004413	 0.081556921
 0.077354835	 0.578597597	 0.081556921
 0.102291359	 0.622190984	 0.081556921
 0.127227682	 0.665784371	 0.081556921
 0.152164005	 0.709377758	 0.081556921
 0.177100329	 0.752970943	 0.081556921
 0.002545865	 0.912813226	 0.015953931
 0.027482188	 0.956406613	 0.015953931
 0.052418512	 1.000000000	 0.015953931
 0.002545865	 0.825626655	 0.015953931
 0.027482188	 0.869219839	 0.015953931
 0.052418512	 0.912813226	 0.015953931
 0.077354835	 0.956406613	 0.015953931
 0.002545865	 0.738439881	 0.015953931
 0.027482188	 0.782033268	 0.015953931
 0.052418512	 0.825626655	 0.015953931
 0.077354835	 0.869219839	 0.015953931
 0.102291359	 0.912813226	 0.015953931
 0.002545865	 0.651253310	 0.015953931
 0.027482188	 0.694846494	 0.015953931
 0.052418512	 0.738439881	 0.015953931
 0.077354835	 0.782033268	 0.015953931
 0.102291359	 0.825626655	 0.015953931
 0.127227682	 0.869219839	 0.015953931
 0.027482188	 0.607659923	 0.015953931
 0.052418512	 0.651253310	 0.015953931
 0.077354835	 0.694846494	 0.015953931
 0.102291359	 0.738439881	 0.015953931
 0.127227682	 0.782033268	 0.015953931
 0.152164005	 0.825626655	 0.015953931
 0.052418512	 0.564066536	 0.015953931
 0.077354835	 0.607659923	 0.015953931
 0.102291359	 0.651253310	 0.015953931
 0.127227682	 0.694846494	 0.015953931
 0.152164005	 0.738439881	 0.015953931
 0.177100329	 0.782033268	 0.015953931
 0.002545865	 0.883751103	 0.212763104
 0.002545865	 0.883751103	 0.343969287
 0.027482188	 0.927344288	 0.212763104
 0.027482188	 0.927344288	 0.343969287
 0.052418512	 0.970937675	 0.212763104
 0.052418512	 0.970937675	 0.343969287
 0.002545865	 0.796564329	 0.212763104
 0.002545865	 0.796564329	 0.343969287
 0.027482188	 0.840157716	 0.212763104
 0.027482188	 0.840157716	 0.343969287
 0.052418512	 0.883751103	 0.212763104
 0.052418512	 0.883751103	 0.343969287
 0.077354835	 0.927344288	 0.212763104
 0.077354835	 0.927344288	 0.343969287
 0.002545865	 0.709377758	 0.212763104
 0.002545865	 0.709377758	 0.343969287
 0.027482188	 0.752970943	 0.212763104
 0.027482188	 0.752970943	 0.343969287
 0.052418512	 0.796564329	 0.212763104
 0.052418512	 0.796564329	 0.343969287
 0.077354835	 0.840157716	 0.212763104
 0.077354835	 0.840157716	 0.343969287
 0.102291359	 0.883751103	 0.212763104
 0.102291359	 0.883751103	 0.343969287
 0.002545865	 0.622190984	 0.212763104
 0.002545865	 0.622190984	 0.343969287
 0.027482188	 0.665784371	 0.212763104
 0.027482188	 0.665784371	 0.343969287
 0.052418512	 0.709377758	 0.212763104
 0.052418512	 0.709377758	 0.343969287
 0.077354835	 0.752970943	 0.212763104
 0.077354835	 0.752970943	 0.343969287
 0.102291359	 0.796564329	 0.212763104
 0.102291359	 0.796564329	 0.343969287
 0.127227682	 0.840157716	 0.212763104
 0.127227682	 0.840157716	 0.343969287
 0.027482188	 0.578597597	 0.212763104
 0.027482188	 0.578597597	 0.343969287
 0.052418512	 0.622190984	 0.212763104
 0.052418512	 0.622190984	 0.343969287
 0.077354835	 0.665784371	 0.212763104
 0.077354835	 0.665784371	 0.343969287
 0.102291359	 0.709377758	 0.212763104
 0.102291359	 0.709377758	 0.343969287
 0.127227682	 0.752970943	 0.212763104
 0.127227682	 0.752970943	 0.343969287
 0.152164005	 0.796564329	 0.212763104
 0.152164005	 0.796564329	 0.343969287
 0.052418512	 0.535004413	 0.212763104
 0.052418512	 0.535004413	 0.343969287
 0.077354835	 0.578597597	 0.212763104
 0.077354835	 0.578597597	 0.343969287
 0.102291359	 0.622190984	 0.212763104
 0.102291359	 0.622190984	 0.343969287
 0.127227682	 0.665784371	 0.212763104
 0.127227682	 0.665784371	 0.343969287
 0.152164005	 0.709377758	 0.212763104
 0.152164005	 0.709377758	 0.343969287
 0.177100329	 0.752970943	 0.212763104
 0.177100329	 0.752970943	 0.343969287
 0.002545865	 0.912813226	 0.147160114
 0.002545865	 0.912813226	 0.278366297
 0.027482188	 0.956406613	 0.147160114
 0.027482188	 0.956406613	 0.278366297
 0.052418512	 1.000000000	 0.147160114
 0.052418512	 1.000000000	 0.278366297
 0.002545865	 0.825626655	 0.147160114
 0.002545865	 0.825626655	 0.278366297
 0.027482188	 0.869219839	 0.147160114
 0.027482188	 0.869219839	 0.278366297
 0.052418512	 0.912813226	 0.147160114
 0.052418512	 0.912813226	 0.278366297
 0.077354835	 0.956406613	 0.147160114
 0.077354835	 0.956406613	 0.278366297
 0.002545865	 0.738439881	 0.147160114
 0.002545865	 0.738439881	 0.278366297
 0.027482188	 0.782033268	 0.147160114
 0.027482188	 0.782033268	 0.278366297
 0.052418512	 0.825626655	 0.147160114
 0.052418512	 0.825626655	 0.278366297
 0.077354835	 0.869219839	 0.147160114
 0.077354835	 0.869219839	 0.278366297
 0.102291359	 0.912813226	 0.147160114
 0.102291359	 0.912813226	 0.278366297
 0.002545865	 0.651253310	 0.147160114
 0.002545865	 0.651253310	 0.278366297
 0.027482188	 0.694846494	 0.147160114
 0.027482188	 0.694846494	 0.278366297
 0.052418512	 0.738439881	 0.147160114
 0.052418512	 0.738439881	 0.278366297
 0.077354835	 0.782033268	 0.147160114
 0.077354835	 0.782033268	 0.278366297
 0.102291359	 0.825626655	 0.147160114
 0.102291359	 0.825626655	 0.278366297
 0.127227682	 0.869219839	 0.147160114
 0.127227682	 0.869219839	 0.278366297
 0.027482188	 0.607659923	 0.147160114
 0.027482188	 0.607659923	 0.278366297
 0.052418512	 0.651253310	 0.147160114
 0.052418512	 0.651253310	 0.278366297
 0.077354835	 0.694846494	 0.147160114
 0.077354835	 0.694846494	 0.278366297
 0.102291359	 0.738439881	 0.147160114
 0.102291359	 0.738439881	 0.278366297
 0.127227682	 0.782033268	 0.147160114
 0.127227682	 0.782033268	 0.278366297
 0.152164005	 0.825626655	 0.147160114
 0.152164005	 0.825626655	 0.278366297
 0.052418512	 0.564066536	 0.147160114
 0.052418512	 0.564066536	 0.278366297
 0.077354835	 0.607659923	 0.147160114
 0.077354835	 0.607659923	 0.278366297
 0.102291359	 0.651253310	 0.147160114
 0.102291359	 0.651253310	 0.278366297
 0.127227682	 0.694846494	 0.147160114
 0.127227682	 0.694846494	 0.278366297
 0.152164005	 0.738439881	 0.147160114
 0.152164005	 0.738439881	 0.278366297
 0.177100329	 0.782033268	 0.147160114
 0.177100329	 0.782033268	 0.278366297
 0.002545865	 0.883751103	 0.475175470
 0.002545865	 0.883751103	 0.606381654
 0.027482188	 0.927344288	 0.475175470
 0.027482188	 0.927344288	 0.606381654
 0.052418512	 0.970937675	 0.475175470
 0.052418512	 0.970937675	 0.606381654
 0.002545865	 0.796564329	 0.475175470
 0.002545865	 0.796564329	 0.606381654
 0.027482188	 0.840157716	 0.475175470
 0.027482188	 0.840157716	 0.606381654
 0.052418512	 0.883751103	 0.475175470
 0.052418512	 0.883751103	 0.606381654
 0.077354835	 0.927344288	 0.475175470
 0.077354835	 0.927344288	 0.606381654
 0.002545865	 0.709377758	 0.475175470
 0.002545865	 0.709377758	 0.606381654
 0.027482188	 0.752970943	 0.475175470
 0.027482188	 0.752970943	 0.606381654
 0.052418512	 0.796564329	 0.475175470
 0.052418512	 0.796564329	 0.606381654
 0.077354835	 0.840157716	 0.475175470
 0.077354835	 0.840157716	 0.606381654
 0.102291359	 0.883751103	 0.475175470
 0.102291359	 0.883751103	 0.606381654
 0.002545865	 0.622190984	 0.475175470
 0.002545865	 0.622190984	 0.606381654
 0.027482188	 0.665784371	 0.475175470
 0.027482188	 0.665784371	 0.606381654
 0.052418512	 0.709377758	 0.475175470
 0.052418512	 0.709377758	 0.606381654
 0.077354835	 0.752970943	 0.475175470
 0.077354835	 0.752970943	 0.606381654
 0.102291359	 0.796564329	 0.475175470
 0.102291359	 0.796564329	 0.606381654
 0.127227682	 0.840157716	 0.475175470
 0.127227682	 0.840157716	 0.606381654
 0.027482188	 0.578597597	 0.475175470
 0.027482188	 0.578597597	 0.606381654
 0.052418512	 0.622190984	 0.475175470
 0.052418512	 0.622190984	 0.606381654
 0.077354835	 0.665784371	 0.475175470
 0.077354835	 0.665784371	 0.606381654
 0.102291359	 0.709377758	 0.475175470
 0.102291359	 0.709377758	 0.606381654
 0.127227682	 0.752970943	 0.475175470
 0.127227682	 0.752970943	 0.606381654
 0.152164005	 0.796564329	 0.475175470
 0.152164005	 0.796564329	 0.606381654
 0.052418512	 0.535004413	 0.475175470
 0.052418512	 0.535004413	 0.606381654
 0.077354835	 0.578597597	 0.475175470
 0.077354835	 0.578597597	 0.606381654
 0.102291359	 0.622190984	 0.475175470
 0.102291359	 0.622190984	 0.606381654
 0.127227682	 0.665784371	 0.475175470
 0.127227682	 0.665784371	 0.606381654
 0.152164005	 0.709377758	 0.475175470
 0.152164005	 0.709377758	 0.606381654
 0.177100329	 0.752970943	 0.475175470
 0.177100329	 0.752970943	 0.606381654
 0.002545865	 0.912813226	 0.409572277
 0.002545865	 0.912813226	 0.540778460
 0.027482188	 0.956406613	 0.409572277
 0.027482188	 0.956406613	 0.540778460
 0.052418512	 1.000000000	 0.409572277
 0.052418512	 1.000000000	 0.540778460
 0.002545865	 0.825626655	 0.409572277
 0.002545865	 0.825626655	 0.540778460
 0.027482188	 0.869219839	 0.409572277
 0.027482188	 0.869219839	 0.540778460
 0.052418512	 0.912813226	 0.409572277
 0.052418512	 0.912813226	 0.540778460
 0.077354835	 0.956406613	 0.409572277
 0.077354835	 0.956406613	 0.540778460
 0.002545865	 0.738439881	 0.409572277
 0.002545865	 0.738439881	 0.540778460
 0.027482188	 0.782033268	 0.409572277
 0.027482188	 0.782033268	 0.540778460
 0.052418512	 0.825626655	 0.409572277
 0.052418512	 0.825626655	 0.540778460
 0.077354835	 0.869219839	 0.409572277
 0.077354835	 0.869219839	 0.540778460
 0.102291359	 0.912813226	 0.409572277
 0.102291359	 0.912813226	 0.540778460
 0.002545865	 0.651253310	 0.409572277
 0.002545865	 0.651253310	 0.540778460
 0.027482188	 0.694846494	 0.409572277
 0.027482188	 0.694846494	 0.540778460
 0.052418512	 0.738439881	 0.409572277
 0.052418512	 0.738439881	 0.540778460
 0.077354835	 0.782033268	 0.409572277
 0.077354835	 0.782033268	 0.540778460
 0.102291359	 0.825626655	 0.409572277
 0.102291359	 0.825626655	 0.540778460
 0.127227682	 0.869219839	 0.409572277
 0.127227682	 0.869219839	 0.540778460
 0.027482188	 0.607659923	 0.409572277
 0.027482188	 0.607659923	 0.540778460
 0.052418512	 0.651253310	 0.409572277
 0.052418512	 0.651253310	 0.540778460
 0.077354835	 0.694846494	 0.409572277
 0.077354835	 0.694846494	 0.540778460
 0.102291359	 0.738439881	 0.409572277
 0.102291359	 0.738439881	 0.540778460
 0.127227682	 0.782033268	 0.409572277
 0.127227682	 0.782033268	 0.540778460
 0.152164005	 0.825626655	 0.409572277
 0.152164005	 0.825626655	 0.540778460
 0.052418512	 0.564066536	 0.409572277
 0.052418512	 0.564066536	 0.540778460
 0.077354835	 0.607659923	 0.409572277
 0.077354835	 0.607659923	 0.540778460
 0.102291359	 0.651253310	 0.409572277
 0.102291359	 0.651253310	 0.540778460
 0.127227682	 0.694846494	 0.409572277
 0.127227682	 0.694846494	 0.540778460
 0.152164005	 0.738439881	 0.409572277
 0.152164005	 0.738439881	 0.540778460
 0.177100329	 0.782033268	 0.409572277
 0.177100329	 0.782033268	 0.540778460
 0.002545865	 0.883751103	 0.737587634
 0.002545865	 0.883751103	 0.868793817
 0.027482188	 0.927344288	 0.737587634
 0.027482188	 0.927344288	 0.868793817
 0.052418512	 0.970937675	 0.737587634
 0.052418512	 0.970937675	 0.868793817
 0.002545865	 0.796564329	 0.737587634
 0.002545865	 0.796564329	 0.868793817
 0.027482188	 0.840157716	 0.737587634
 0.027482188	 0.840157716	 0.868793817
 0.052418512	 0.883751103	 0.737587634
 0.052418512	 0.883751103	 0.868793817
 0.077354835	 0.927344288	 0.737587634
 0.077354835	 0.927344288	 0.868793817
 0.002545865	 0.709377758	 0.737587634
 0.002545865	 0.709377758	 0.868793817
 0.027482188	 0.752970943	 0.737587634
 0.027482188	 0.752970943	 0.868793817
 0.052418512	 0.796564329	 0.737587634
 0.052418512	 0.796564329	 0.868793817
 0.077354835	 0.840157716	 0.737587634
 0.077354835	 0.840157716	 0.868793817
 0.102291359	 0.883751103	 0.737587634
 0.102291359	 0.883751103	 0.868793817
 0.002545865	 0.622190984	 0.737587634
 0.002545865	 0.622190984	 0.868793817
 0.027482188	 0.665784371	 0.737587634
 0.027482188	 0.665784371	 0.868793817
 0.052418512	 0.709377758	 0.737587634
 0.052418512	 0.709377758	 0.868793817
 0.077354835	 0.752970943	 0.737587634
 0.077354835	 0.752970943	 0.868793817
 0.102291359	 0.796564329	 0.737587634
 0.102291359	 0.796564329	 0.868793817
 0.127227682	 0.840157716	 0.737587634
 0.127227682	 0.840157716	 0.868793817
 0.027482188	 0.578597597	 0.737587634
 0.027482188	 0.578597597	 0.868793817
 0.052418512	 0.622190984	 0.737587634
 0.052418512	 0.622190984	 0.868793817
 0.077354835	 0.665784371	 0.737587634
 0.077354835	 0.665784371	 0.868793817
 0.102291359	 0.709377758	 0.737587634
 0.102291359	 0.709377758	 0.868793817
 0.127227682	 0.752970943	 0.737587634
 0.127227682	 0.752970943	 0.868793817
 0.152164005	 0.796564329	 0.737587634
 0.152164005	 0.796564329	 0.868793817
 0.052418512	 0.535004413	 0.737587634
 0.052418512	 0.535004413	 0.868793817
 0.077354835	 0.578597597	 0.737587634
 0.077354835	 0.578597597	 0.868793817
 0.102291359	 0.622190984	 0.737587634
 0.102291359	 0.622190984	 0.868793817
 0.127227682	 0.665784371	 0.737587634
 0.127227682	 0.665784371	 0.868793817
 0.152164005	 0.709377758	 0.737587634
 0.152164005	 0.709377758	 0.868793817
 0.177100329	 0.752970943	 0.737587634
 0.177100329	 0.752970943	 0.868793817
 0.002545865	 0.912813226	 0.671984644
 0.002545865	 0.912813226	 0.803190827
 0.027482188	 0.956406613	 0.671984644
 0.027482188	 0.956406613	 0.803190827
 0.052418512	 1.000000000	 0.671984644
 0.052418512	 1.000000000	 0.803190827
 0.002545865	 0.825626655	 0.671984644
 0.002545865	 0.825626655	 0.803190827
 0.027482188	 0.869219839	 0.671984644
 0.027482188	 0.869219839	 0.803190827
 0.052418512	 0.912813226	 0.671984644
 0.052418512	 0.912813226	 0.803190827
 0.077354835	 0.956406613	 0.671984644
 0.077354835	 0.956406613	 0.803190827
 0.002545865	 0.738439881	 0.671984644
 0.002545865	 0.738439881	 0.803190827
 0.027482188	 0.782033268	 0.671984644
 0.027482188	 0.782033268	 0.803190827
 0.052418512	 0.825626655	 0.671984644
 0.052418512	 0.825626655	 0.803190827
 0.077354835	 0.869219839	 0.671984644
 0.077354835	 0.869219839	 0.803190827
 0.102291359	 0.912813226	 0.671984644
 0.102291359	 0.912813226	 0.803190827
 0.002545865	 0.651253310	 0.671984644
 0.002545865	 0.651253310	 0.803190827
 0.027482188	 0.694846494	 0.671984644
 0.027482188	 0.694846494	 0.803190827
 0.052418512	 0.738439881	 0.671984644
 0.052418512	 0.738439881	 0.803190827
 0.077354835	 0.782033268	 0.671984644
 0.077354835	 0.782033268	 0.803190827
 0.102291359	 0.825626655	 0.671984644
 0.102291359	 0.825626655	 0.803190827
 0.127227682	 0.869219839	 0.671984644
 0.127227682	 0.869219839	 0.803190827
 0.027482188	 0.607659923	 0.671984644
 0.027482188	 0.607659923	 0.803190827
 0.052418512	 0.651253310	 0.671984644
 0.052418512	 0.651253310	 0.803190827
 0.077354835	 0.694846494	 0.671984644
 0.077354835	 0.694846494	 0.803190827
 0.102291359	 0.738439881	 0.671984644
 0.102291359	 0.738439881	 0.803190827
 0.127227682	 0.782033268	 0.671984644
 0.127227682	 0.782033268	 0.803190827
 0.152164005	 0.825626655	 0.671984644
 0.152164005	 0.825626655	 0.803190827
 0.052418512	 0.564066536	 0.671984644
 0.052418512	 0.564066536	 0.803190827
 0.077354835	 0.607659923	 0.671984644
 0.077354835	 0.607659923	 0.803190827
 0.102291359	 0.651253310	 0.671984644
 0.102291359	 0.651253310	 0.803190827
 0.127227682	 0.694846494	 0.671984644
 0.127227682	 0.694846494	 0.803190827
 0.152164005	 0.738439881	 0.671984644
 0.152164005	 0.738439881	 0.803190827
 0.177100329	 0.782033268	 0.671984644
 0.177100329	 0.782033268	 0.803190827
 0.002545865	 0.883751103	 1.000000000
 0.027482188	 0.927344288	 1.000000000
 0.052418512	 0.970937675	 1.000000000
 0.002545865	 0.796564329	 1.000000000
 0.027482188	 0.840157716	 1.000000000
 0.052418512	 0.883751103	 1.000000000
 0.077354835	 0.927344288	 1.000000000
 0.002545865	 0.709377758	 1.000000000
 0.027482188	 0.752970943	 1.000000000
 0.052418512	 0.796564329	 1.000000000
 0.077354835	 0.840157716	 1.000000000
 0.102291359	 0.883751103	 1.000000000
 0.002545865	 0.622190984	 1.000000000
 0.027482188	 0.665784371	 1.000000000
 0.052418512	 0.709377758	 1.000000000
 0.077354835	 0.752970943	 1.000000000
 0.102291359	 0.796564329	 1.000000000
 0.127227682	 0.840157716	 1.000000000
 0.027482188	 0.578597597	 1.000000000
 0.052418512	 0.622190984	 1.000000000
 0.077354835	 0.665784371	 1.000000000
 0.102291359	 0.709377758	 1.000000000
 0.127227682	 0.752970943	 1.000000000
 0.152164005	 0.796564329	 1.000000000
 0.052418512	 0.535004413	 1.000000000
 0.077354835	 0.578597597	 1.000000000
 0.102291359	 0.622190984	 1.000000000
 0.127227682	 0.665784371	 1.000000000
 0.152164005	 0.709377758	 1.000000000
 0.177100329	 0.752970943	 1.000000000
 0.002545865	 0.912813226	 0.934397010
 0.027482188	 0.956406613	 0.934397010
 0.052418512	 1.000000000	 0.934397010
 0.002545865	 0.825626655	 0.934397010
 0.027482188	 0.869219839	 0.934397010
 0.052418512	 0.912813226	 0.934397010
 0.077354835	 0.956406613	 0.934397010
 0.002545865	 0.738439881	 0.934397010
 0.027482188	 0.782033268	 0.934397010
 0.052418512	 0.825626655	 0.934397010
 0.077354835	 0.869219839	 0.934397010
 0.102291359	 0.912813226	 0.934397010
 0.002545865	 0.651253310	 0.934397010
 0.027482188	 0.694846494	 0.934397010
 0.052418512	 0.738439881	 0.934397010
 0.077354835	 0.782033268	 0.934397010
 0.102291359	 0.825626655	 0.934397010
 0.127227682	 0.869219839	 0.934397010
 0.027482188	 0.607659923	 0.934397010
 0.052418512	 0.651253310	 0.934397010
 0.077354835	 0.694846494	 0.934397010
 0.102291359	 0.738439881	 0.934397010
 0.127227682	 0.782033268	 0.934397010
 0.152164005	 0.825626655	 0.934397010
 0.052418512	 0.564066536	 0.934397010
 0.077354835	 0.607659923	 0.934397010
 0.102291359	 0.651253310	 0.934397010
 0.127227682	 0.694846494	 0.934397010
 0.152164005	 0.738439881	 0.934397010
 0.177100329	 0.782033268	 0.934397010
 0.102291359	 0.970937675	 0.081556921
 0.127227682	 0.927344288	 0.081556921
 0.152164005	 0.970937675	 0.081556921
 0.152164005	 0.883751103	 0.081556921
 0.177100329	 0.927344288	 0.081556921
 0.202036652	 0.970937675	 0.081556921
 0.177100329	 0.840157716	 0.081556921
 0.202036652	 0.883751103	 0.081556921
 0.226972975	 0.927344288	 0.081556921
 0.251909298	 0.970937675	 0.081556921
 0.202036652	 0.796564329	 0.081556921
 0.226972975	 0.840157716	 0.081556921
 0.251909298	 0.883751103	 0.081556921
 0.276845822	 0.927344288	 0.081556921
 0.301782146	 0.970937675	 0.081556921
 0.102291359	 1.000000000	 0.015953931
 0.127227682	 0.956406613	 0.015953931
 0.152164005	 1.000000000	 0.015953931
 0.152164005	 0.912813226	 0.015953931
 0.177100329	 0.956406613	 0.015953931
 0.202036652	 1.000000000	 0.015953931
 0.177100329	 0.869219839	 0.015953931
 0.202036652	 0.912813226	 0.015953931
 0.226972975	 0.956406613	 0.015953931
 0.251909298	 1.000000000	 0.015953931
 0.202036652	 0.825626655	 0.015953931
 0.226972975	 0.869219839	 0.015953931
 0.251909298	 0.912813226	 0.015953931
 0.276845822	 0.956406613	 0.015953931
 0.301782146	 1.000000000	 0.015953931
 0.102291359	 0.970937675	 0.212763104
 0.102291359	 0.970937675	 0.343969287
 0.127227682	 0.927344288	 0.212763104
 0.127227682	 0.927344288	 0.343969287
 0.152164005	 0.970937675	 0.212763104
 0.152164005	 0.970937675	 0.343969287
 0.152164005	 0.883751103	 0.212763104
 0.152164005	 0.883751103	 0.343969287
 0.177100329	 0.927344288	 0.212763104
 0.177100329	 0.927344288	 0.343969287
 0.202036652	 0.970937675	 0.212763104
 0.202036652	 0.970937675	 0.343969287
 0.177100329	 0.840157716	 0.212763104
 0.177100329	 0.840157716	 0.343969287
 0.202036652	 0.883751103	 0.212763104
 0.202036652	 0.883751103	 0.343969287
 0.226972975	 0.927344288	 0.212763104
 0.226972975	 0.927344288	 0.343969287
 0.251909298	 0.970937675	 0.212763104
 0.251909298	 0.970937675	 0.343969287
 0.202036652	 0.796564329	 0.212763104
 0.202036652	 0.796564329	 0.343969287
 0.226972975	 0.840157716	 0.212763104
 0.226972975	 0.840157716	 0.343969287
 0.251909298	 0.883751103	 0.212763104
 0.251909298	 0.883751103	 0.343969287
 0.276845822	 0.927344288	 0.212763104
 0.276845822	 0.927344288	 0.343969287
 0.301782146	 0.970937675	 0.212763104
 0.301782146	 0.970937675	 0.343969287
 0.102291359	 1.000000000	 0.147160114
 0.102291359	 1.000000000	 0.278366297
 0.127227682	 0.956406613	 0.147160114
 0.127227682	 0.956406613	 0.278366297
 0.152164005	 1.000000000	 0.147160114
 0.152164005	 1.000000000	 0.278366297
 0.152164005	 0.912813226	 0.147160114
 0.152164005	 0.912813226	 0.278366297
 0.177100329	 0.956406613	 0.147160114
 0.177100329	 0.956406613	 0.278366297
 0.202036652	 1.000000000	 0.147160114
 0.202036652	 1.000000000	 0.278366297
 0.177100329	 0.869219839	 0.147160114
 0.177100329	 0.869219839	 0.278366297
 0.202036652	 0.912813226	 0.147160114
 0.202036652	 0.912813226	 0.278366297
 0.226972975	 0.956406613	 0.147160114
 0.226972975	 0.956406613	 0.278366297
 0.251909298	 1.000000000	 0.147160114
 0.251909298	 1.000000000	 0.278366297
 0.202036652	 0.825626655	 0.147160114
 0.202036652	 0.825626655	 0.278366297
 0.226972975	 0.869219839	 0.147160114
 0.226972975	 0.869219839	 0.278366297
 0.251909298	 0.912813226	 0.147160114
 0.251909298	 0.912813226	 0.278366297
 0.276845822	 0.956406613	 0.147160114
 0.276845822	 0.956406613	 0.278366297
 0.301782146	 1.000000000	 0.147160114
 0.301782146	 1.000000000	 0.278366297
 0.102291359	 0.970937675	 0.475175470
 0.102291359	 0.970937675	 0.606381654
 0.127227682	 0.927344288	 0.475175470
 0.127227682	 0.927344288	 0.606381654
 0.152164005	 0.970937675	 0.475175470
 0.152164005	 0.970937675	 0.606381654
 0.152164005	 0.883751103	 0.475175470
 0.152164005	 0.883751103	 0.606381654
 0.177100329	 0.927344288	 0.475175470
 0.177100329	 0.927344288	 0.606381654
 0.202036652	 0.970937675	 0.475175470
 0.202036652	 0.970937675	 0.606381654
 0.177100329	 0.840157716	 0.475175470
 0.177100329	 0.840157716	 0.606381654
 0.202036652	 0.883751103	 0.475175470
 0.202036652	 0.883751103	 0.606381654
 0.226972975	 0.927344288	 0.475175470
 0.226972975	 0.927344288	 0.606381654
 0.251909298	 0.970937675	 0.475175470
 0.251909298	 0.970937675	 0.606381654
 0.202036652	 0.796564329	 0.475175470
 0.202036652	 0.796564329	 0.606381654
 0.226972975	 0.840157716	 0.475175470
 0.226972975	 0.840157716	 0.606381654
 0.251909298	 0.883751103	 0.475175470
 0.251909298	 0.883751103	 0.606381654
 0.276845822	 0.927344288	 0.475175470
 0.276845822	 0.927344288	 0.606381654
 0.301782146	 0.970937675	 0.475175470
 0.301782146	 0.970937675	 0.606381654
 0.102291359	 1.000000000	 0.409572277
 0.102291359	 1.000000000	 0.540778460
 0.127227682	 0.956406613	 0.409572277
 0.127227682	 0.956406613	 0.540778460
 0.152164005	 1.000000000	 0.409572277
 0.152164005	 1.000000000	 0.540778460
 0.152164005	 0.912813226	 0.409572277
 0.152164005	 0.912813226	 0.540778460
 0.177100329	 0.956406613	 0.409572277
 0.177100329	 0.956406613	 0.540778460
 0.202036652	 1.000000000	 0.409572277
 0.202036652	 1.000000000	 0.540778460
 0.177100329	 0.869219839	 0.409572277
 0.177100329	 0.869219839	 0.540778460
 0.202036652	 0.912813226	 0.409572277
 0.202036652	 0.912813226	 0.540778460
 0.226972975	 0.956406613	 0.409572277
 0.226972975	 0.956406613	 0.540778460
 0.251909298	 1.000000000	 0.409572277
 0.251909298	 1.000000000	 0.540778460
 0.202036652	 0.825626655	 0.409572277
 0.202036652	 0.825626655	 0.540778460
 0.226972975	 0.869219839	 0.409572277
 0.226972975	 0.869219839	 0.540778460
 0.251909298	 0.912813226	 0.409572277
 0.251909298	 0.912813226	 0.540778460
 0.276845822	 0.956406613	 0.409572277
 0.276845822	 0.956406613	 0.540778460
 0.301782146	 1.000000000	 0.409572277
 0.301782146	 1.000000000	 0.540778460
 0.102291359	 0.970937675	 0.737587634
 0.102291359	 0.970937675	 0.868793817
 0.127227682	 0.927344288	 0.737587634
 0.127227682	 0.927344288	 0.868793817
 0.152164005	 0.970937675	 0.737587634
 0.152164005	 0.970937675	 0.868793817
 0.152164005	 0.883751103	 0.737587634
 0.152164005	 0.883751103	 0.868793817
 0.177100329	 0.927344288	 0.737587634
 0.177100329	 0.927344288	 0.868793817
 0.202036652	 0.970937675	 0.737587634
 0.202036652	 0.970937675	 0.868793817
 0.177100329	 0.840157716	 0.737587634
 0.177100329	 0.840157716	 0.868793817
 0.202036652	 0.883751103	 0.737587634
 0.202036652	 0.883751103	 0.868793817
 0.226972975	 0.927344288	 0.737587634
 0.226972975	 0.927344288	 0.868793817
 0.251909298	 0.970937675	 0.737587634
 0.251909298	 0.970937675	 0.868793817
 0.202036652	 0.796564329	 0.737587634
 0.202036652	 0.796564329	 0.868793817
 0.226972975	 0.840157716	 0.737587634
 0.226972975	 0.840157716	 0.868793817
 0.251909298	 0.883751103	 0.737587634
 0.251909298	 0.883751103	 0.868793817
 0.276845822	 0.927344288	 0.737587634
 0.276845822	 0.927344288	 0.868793817
 0.301782146	 0.970937675	 0.737587634
 0.301782146	 0.970937675	 0.868793817
 0.102291359	 1.000000000	 0.671984644
 0.102291359	 1.000000000	 0.803190827
 0.127227682	 0.956406613	 0.671984644
 0.127227682	 0.956406613	 0.803190827
 0.152164005	 1.000000000	 0.671984644
 0.152164005	 1.000000000	 0.803190827
 0.152164005	 0.912813226	 0.671984644
 0.152164005	 0.912813226	 0.803190827
 0.177100329	 0.956406613	 0.671984644
 0.177100329	 0.956406613	 0.803190827
 0.202036652	 1.000000000	 0.671984644
 0.202036652	 1.000000000	 0.803190827
 0.177100329	 0.869219839	 0.671984644
 0.177100329	 0.869219839	 0.803190827
 0.202036652	 0.912813226	 0.671984644
 0.202036652	 0.912813226	 0.803190827
 0.226972975	 0.956406613	 0.671984644
 0.226972975	 0.956406613	 0.803190827
 0.251909298	 1.000000000	 0.671984644
 0.251909298	 1.000000000	 0.803190827
 0.202036652	 0.825626655	 0.671984644
 0.202036652	 0.825626655	 0.803190827
 0.226972975	 0.869219839	 0.671984644
 0.226972975	 0.869219839	 0.803190827
 0.251909298	 0.912813226	 0.671984644
 0.251909298	 0.912813226	 0.803190827
 0.276845822	 0.956406613	 0.671984644
 0.276845822	 0.956406613	 0.803190827
 0.301782146	 1.000000000	 0.671984644
 0.301782146	 1.000000000	 0.803190827
 0.102291359	 0.970937675	 1.000000000
 0.127227682	 0.927344288	 1.000000000
 0.152164005	 0.970937675	 1.000000000
 0.152164005	 0.883751103	 1.000000000
 0.177100329	 0.927344288	 1.000000000
 0.202036652	 0.970937675	 1.000000000
 0.177100329	 0.840157716	 1.000000000
 0.202036652	 0.883751103	 1.000000000
 0.226972975	 0.927344288	 1.000000000
 0.251909298	 0.970937675	 1.000000000
 0.202036652	 0.796564329	 1.000000000