Autosave                                
   1.00000000000000     
     7.4619090824000001  -12.9244056521000008    0.0000000000000000
     7.4619090824000001   12.9244056521000008    0.0000000000000000
     0.0000000000000000    0.0000000000000000   12.9145771254999993
   B    N    C    ele   VB
   141   143     1   1   3
Direct
  0.1108985962023780  0.0553054419949472  0.3750000000029061
  0.1111111176634205  0.0555571365391234  0.8749999999990337
  0.1092901233604474  0.2207716187974947  0.3750000000029061
  0.1111105114800574  0.2222223324082864  0.8749999999990337
  0.1092901233621953  0.3885185045610128  0.3750000000029061
  0.1111105114818054  0.3888881790698313  0.8749999999990337
  0.1108985962043107  0.5555931543078305  0.3750000000029061
  0.1111111176653532  0.5555539812246969  0.8749999999990337
  0.1110668602959728  0.7222664730016296  0.3750000000029061
  0.1111116832654882  0.7222216500321141  0.8749999999990337
  0.1110668602977208  0.8888003872982085  0.3750000000029061
  0.1111116832672362  0.8888900332372393  0.8749999999990337
  0.2777401790932980  0.0553054419966951  0.3750000000029061
  0.2777793521764319  0.0555571365408713  0.8749999999990337
  0.2776529186968966  0.2219725039940574  0.3750000000029061
  0.2777784941817743  0.2222236549638127  0.8749999999990337
  0.2777733353303196  0.3888866676650641  0.8749999999990337
  0.2776529187003996  0.5556804147044097  0.3750000000029061
  0.2777784941852773  0.5555548392195320  0.8749999999990337
  0.2777401790936675  0.7224347370965961  0.3750000000029061
  0.2777793521768014  0.7222222156355532  0.8749999999990337
  0.2777275856960724  0.8888637928508427  0.3750000000029061
  0.2777791802940429  0.8888895901498278  0.8749999999990337
  0.4445632046580782  0.0551606969972800  0.3750000000029061
  0.4444453897976114  0.0555563343339096  0.8749999999990337
  0.4448148287346499  0.2207716187976794  0.3750000000029061
  0.4444451542258315  0.2222223324084711  0.8749999999990337
  0.4444466656340945  0.3888866676635009  0.8749999999990337
  0.4444466656358425  0.5555599980711781  0.8749999999990337
  0.4448148287365826  0.7240432099354001  0.3750000000029061
  0.4444451542277641  0.7222228218157901  0.8749999999990337
  0.4445632046601956  0.8894025077615676  0.3750000000029061
  0.4444453897997289  0.8888890555644711  0.8749999999990337
  0.6112344913599321  0.0556172457282334  0.3750000000029061
  0.6111110966672796  0.0555555483819069  0.8749999999990337
  0.6114192195504848  0.2219141137471179  0.3750000000029061
  0.6111110528595661  0.2222222804380363  0.8749999999990337
  0.6125617144999159  0.3885185045629455  0.3750000000029061
  0.6111110008891244  0.3888881790717639  0.8749999999990337
  0.6113608293068563  0.5556804147045944  0.3750000000029061
  0.6111096783371009  0.5555548392197167  0.8749999999990337
  0.6125617145001007  0.7240432099371480  0.3750000000029061
  0.6111110008893091  0.7222228218175381  0.8749999999990337
  0.6114192195541654  0.8895051058052992  0.3750000000029061
  0.6111110528632467  0.8888887724234629  0.8749999999990337
  0.7777160876748279  0.0556172457299813  0.3750000000029061
  0.7777777850211542  0.0555555483836548  0.8749999999990337
  0.7777160876732647  0.2220988419409742  0.3750000000029061
  0.7777777850195911  0.2222222366336271  0.8749999999990337
  0.7781726364042111  0.3887701286428354  0.3750000000029061
  0.7777769990675811  0.3888879435033022  0.8749999999990337
  0.7780278914081142  0.5555931543115111  0.3750000000029061
  0.7777761968639382  0.5555539812283775  0.8749999999990337
  0.7780278914065439  0.7224347370985359  0.3750000000029061
  0.7777761968623679  0.7222222156374930  0.8749999999990337
  0.7781726364061509  0.8894025077650635  0.3750000000029061
  0.7777769990695209  0.8888890555679669  0.8749999999990337
  0.9439308255358431  0.0551606969953474  0.3750000000029061
  0.9444442777329396  0.0555563343319769  0.8749999999990337
  0.9438282274922962  0.2219141137434302  0.3750000000029061
  0.9444445608741325  0.2222222804343486  0.8749999999990337
  0.9439308255360278  0.3887701286373998  0.3750000000029061
  0.9444442777331243  0.3888879434978665  0.8749999999990337
  0.9444695404500638  0.5556057477054185  0.3750000000029061
  0.9444437431510787  0.5555541531074480  0.8749999999990337
  0.9445329459993869  0.7222664729998746  0.3750000000029061
  0.9444433000603562  0.7222216500303591  0.8749999999990337
  0.9444695404502486  0.8888637928473468  0.3750000000029061
  0.9444437431512634  0.8888895901463320  0.8749999999990337
  0.0555526818559401  0.1111127236837847  0.1250015517279769
  0.0555526818559401  0.1111127236837847  0.6249984482700832
  0.0555526715287596  0.2777763357641985  0.1250021427964149
  0.0555526715287596  0.2777763357641985  0.6249978572016454
  0.0555526818561249  0.4444399580696383  0.1250015517279769
  0.0555526818561249  0.4444399580696383  0.6249984482700832
  0.0555549303606186  0.6111100019204896  0.1250004302366471
  0.0555549303606186  0.6111100019204896  0.6249995697614132
  0.0555555556013942  0.7777777778034149  0.1249972826937323
  0.0555555556013942  0.7777777778034149  0.6250027173043280
  0.0555549303608034  0.9444449283434104  0.1250004302366471
  0.0555549303608034  0.9444449283434104  0.6249995697614132
  0.2222217249399609  0.1111101165825183  0.1250179831278205
  0.2222217249399609  0.1111101165825183  0.6249820168702397
  0.2222141729876324  0.2777722126134244  0.1250365175567189
  0.2222141729876324  0.2777722126134244  0.6249634824413413
  0.2222141729860621  0.4444419603707051  0.1250365175567189
  0.2222141729860621  0.4444419603707051  0.6249634824413413
  0.2222217249419007  0.6111116083557018  0.1250179831278205
  0.2222217249419007  0.6111116083557018  0.6249820168702397
  0.2222233313804174  0.7777784030408795  0.1250004302366471
  0.2222233313804174  0.7777784030408795  0.6249995697614132
  0.2222233313788542  0.9444449283418472  0.1250004302366471
  0.2222233313788542  0.9444449283418472  0.6249995697614132
  0.3888933752275876  0.1111127236839694  0.1250015517279769
  0.3888933752275876  0.1111127236839694  0.6249984482700832
  0.3888913729267056  0.2777722126151794  0.1250365175567189
  0.3888913729267056  0.2777722126151794  0.6249634824413413
  0.3888888888991744  0.4444444443984210  0.1250694891873660
  0.3888888888991744  0.4444444443984210  0.6249305108106943
  0.3888913729268903  0.6111191603115333  0.1250365175567189
  0.3888913729268903  0.6111191603115333  0.6249634824413413
  0.3888933752312753  0.7777806515453661  0.1250015517279769
  0.3888933752312753  0.7777806515453661  0.6249984482700832
  0.3888923798709504  0.9444461898872079  0.1249987780872628
  0.3888923798709504  0.9444461898872079  0.6250012219107977
  0.5555568180110436  0.1111108248524480  0.1250022676170588
  0.5555568180110436  0.1111108248524480  0.6249977323810015
  0.5555569976386781  0.2777763357661312  0.1250021427964149
  0.5555569976386781  0.2777763357661312  0.6249978572016454
  0.5555611207863186  0.4444419603742010  0.1250365175567189
  0.5555611207863186  0.4444419603742010  0.6249634824413413
  0.5555611207880665  0.6111191603132813  0.1250365175567189
  0.5555611207880665  0.6111191603132813  0.6249634824413413
  0.5555569976406107  0.7777806618760498  0.1250021427964149
  0.5555569976406107  0.7777806618760498  0.6249978572016454
  0.5555568180131610  0.9444459930599438  0.1250022676170588
  0.5555568180131610  0.9444459930599438  0.6249977323810015
  0.7222222222002728  0.1111111110973297  0.1250026683232566
  0.7222222222002728  0.1111111110973297  0.6249973316748036
  0.7222225084484586  0.2777765153904546  0.1250022676170588
  0.7222225084484586  0.2777765153904546  0.6249977323810015
  0.7222206096136261  0.4444399580700078  0.1250015517279769
  0.7222206096136261  0.4444399580700078  0.6249984482700832
  0.7222232167150772  0.6111116083576345  0.1250179831278205
  0.7222232167150772  0.6111116083576345  0.6249820168702397
  0.7222206096171291  0.7777806515455509  0.1250015517279769
  0.7222206096171291  0.7777806515455509  0.6249984482700832
  0.7222225084488281  0.9444459930583806  0.1250022676170588
  0.7222225084488281  0.9444459930583806  0.6249977323810015
  0.8888873402392148  0.1111108248487674  0.1250022676170588
  0.8888873402392148  0.1111108248487674  0.6249977323810015
  0.8888873402409627  0.2777765153883300  0.1250022676170588
  0.8888873402409627  0.2777765153883300  0.6249977323810015
  0.8888871434103875  0.4444409534266450  0.1249987780872628
  0.8888871434103875  0.4444409534266450  0.6250012219107977
  0.8888884049557482  0.6111100019187417  0.1250004302366471
  0.8888884049557482  0.6111100019187417  0.6249995697614132
  0.8888884049574961  0.7777784030406948  0.1250004302366471
  0.8888884049574961  0.7777784030406948  0.6249995697614132
  0.8888871434123202  0.9444461898852752  0.1249987780872628
  0.8888871434123202  0.9444461898852752  0.6250012219107977
  0.1111143867512477  0.0555585664281870  0.1250091847062084
  0.1111143867512477  0.0555585664281870  0.6249908152918516
  0.1111092401896538  0.2222199856642879  0.1249938954514838
  0.1111092401896538  0.2222199856642879  0.6250061045465765
  0.1111092401914017  0.3888892545234260  0.1249938954514838
  0.1111092401914017  0.3888892545234260  0.6250061045465765
  0.1111143867531804  0.5555558204234604  0.1250091847062084
  0.1111143867531804  0.5555558204234604  0.6249908152918516
  0.1111110321183754  0.7222223011792270  0.1249997479944723
  0.1111110321183754  0.7222223011792270  0.6250002520035881
  0.1111110321201233  0.8888887309430135  0.1249997479944723
  0.1111110321201233  0.8888887309430135  0.6250002520035881
  0.2777775129776682  0.0555585664299349  0.1250091847062084
  0.2777775129776682  0.0555585664299349  0.6249908152918516
  0.2777837621832972  0.2222341909668584  0.1250677909017627
  0.2777837621832972  0.2222341909668584  0.6249322090962975
  0.2777712208066043  0.3888856104032061  0.1249870656763893
  0.2777712208066043  0.3888856104032061  0.6250129343216712
  0.2777837621868002  0.5555495712180091  0.1250677909017627
  0.2777837621868002  0.5555495712180091  0.6249322090962975
  0.2777775129780377  0.7222189465477261  0.1250091847062084
  0.2777775129780377  0.7222189465477261  0.6249908152918516
  0.2777758400361665  0.8888879200208898  0.1250038920321418
  0.2777758400361665  0.8888879200208898  0.6249961079659184
  0.4444444761785583  0.0555542329127829  0.1249943537006078
  0.4444444761785583  0.0555542329127829  0.6250056462974525
  0.4444440787722367  0.2222199856644727  0.1249938954514838
  0.4444440787722367  0.2222199856644727  0.6250061045465765
  0.4444477228959525  0.3888856104016429  0.1249870656763893
  0.4444477228959525  0.3888856104016429  0.6250129343216712
  0.4444477228977004  0.5555621125948940  0.1249870656763893
  0.4444477228977004  0.5555621125948940  0.6250129343216712
  0.4444440787741694  0.7222240931061938  0.1249938954514838
  0.4444440787741694  0.7222240931061938  0.6250061045465765
  0.4444444761806757  0.8888902433665444  0.1249943537006078
  0.4444444761806757  0.8888902433665444  0.6250056462974525
  0.6111112283386025  0.0555556142175684  0.1249936941436574
  0.6111112283386025  0.0555556142175684  0.6250063058544028
  0.6111113495327208  0.2222219837648818  0.1249958860530583
  0.6111113495327208  0.2222219837648818  0.6250041139450015
  0.6111133476331227  0.3888892545253587  0.1249938954514838
  0.6111133476331227  0.3888892545253587  0.6250061045465765
  0.6110991423340552  0.5555495712181938  0.1250677909017627
  0.6110991423340552  0.5555495712181938  0.6249322090962975
  0.6111133476333075  0.7222240931079418  0.1249938954514838
  0.6111133476333075  0.7222240931079418  0.6250061045465765
  0.6111113495364014  0.8888893657697717  0.1249958860530583
  0.6111113495364014  0.8888893657697717  0.6250041139450015
  0.7777777191854929  0.0555556142193164  0.1249936941436574
  0.7777777191854929  0.0555556142193164  0.6250063058544028
  0.7777777191839297  0.2222221049623040  0.1249936941436574
  0.7777777191839297  0.2222221049623040  0.6250063058544028
  0.7777791004887081  0.3888888571223554  0.1249943537006078
  0.7777791004887081  0.3888888571223554  0.6250056462974525
  0.7777747669748744  0.5555558204271410  0.1250091847062084
  0.7777747669748744  0.5555558204271410  0.6249908152918516
  0.7777747669733041  0.7222189465496659  0.1250091847062084
  0.7777747669733041  0.7222189465496659  0.6249908152918516
  0.7777791004906479  0.8888902433700403  0.1249943537006078
  0.7777791004906479  0.8888902433700403  0.6250056462974525
  0.9444430899308662  0.0555542329108502  0.1249943537006078
  0.9444430899308662  0.0555542329108502  0.6250056462974525
  0.9444439675278237  0.2222219837611940  0.1249958860530583
  0.9444439675278237  0.2222219837611940  0.6250041139450015
  0.9444430899310510  0.3888888571169197  0.1249943537006078
  0.9444430899310510  0.3888888571169197  0.6250056462974525
  0.9444454132800167  0.5555574933653243  0.1250038920321418
  0.9444454132800167  0.5555574933653243  0.6249961079659184
  0.9444446023545819  0.7222223011774720  0.1249997479944723
  0.9444446023545819  0.7222223011774720  0.6250002520035881
  0.9444454132802015  0.8888879200173939  0.1250038920321418
  0.9444454132802015  0.8888879200173939  0.6249961079659184
  0.0546178945369774  0.1101387703949651  0.3750000000029061
  0.0555550801055258  0.1111101980325854  0.8749999999990337
  0.0545957148529716  0.2772978574263048  0.3750000000029061
  0.0555552642751596  0.2777776321373986  0.8749999999990337
  0.0546178945371622  0.4444791240394952  0.3750000000029061
  0.0555550801057105  0.4444448819704232  0.8749999999990337
  0.0555300535956878  0.6112273486827212  0.3750000000029061
  0.0555557178206593  0.6111114811468182  0.8749999999990337
  0.0555555556013942  0.7777777778034149  0.3750000000029061
  0.0555555556013942  0.7777777778034149  0.8749999999990337
  0.0555300535958726  0.9443027048162473  0.3750000000029061
  0.0555557178208441  0.9444442365771218  0.8749999999990337
  0.2221221300358718  0.1109109267743399  0.3750000000029061
  0.2222224781188571  0.1111116229403105  0.8749999999990337
  0.2197608893142930  0.2757864363741863  0.3750000000029061
  0.2222219893094335  0.2777769584986209  0.8749999999990337
  0.2197608893127227  0.4439744529366036  0.3750000000029061
  0.2222219893078632  0.4444450308073096  0.8749999999990337
  0.2221221300378115  0.6112112032597909  0.3750000000029061
  0.2222224781207969  0.6111108551768054  0.8749999999990337
  0.2221059846181854  0.7778032798058103  0.3750000000029061
  0.2222218521540882  0.7777776155808389  0.8749999999990337
  0.2221059846166222  0.9443027048146841  0.3750000000029061
  0.2222218521525250  0.9444442365755586  0.8749999999990337
  0.3888542092577307  0.1101387703951499  0.3750000000029061
  0.3888884513268027  0.1111101980327701  0.8749999999990337
  0.3893588803608070  0.2757864363759413  0.3750000000029061
  0.3888883024901011  0.2777769585003759  0.8749999999990337
  0.3888888888991744  0.4444444443984210  0.8749999999990337
  0.3893588803609918  0.6135724439848728  0.3750000000029061
  0.3888883024902858  0.6111113439897320  0.8749999999990337
  0.3888542092614184  0.7787154388643286  0.3750000000029061
  0.3888884513304904  0.7777782532957803  0.8749999999990337
  0.3888032439576971  0.9444016219305815  0.3750000000029061
  0.3888882284782411  0.9444441141908532  0.8749999999990337
  0.5556575346666223  0.1109253191722146  0.3750000000029061
  0.5555555718892562  0.1111108559688051  0.8749999999990337
  0.5560354759765722  0.2772978574282374  0.3750000000029061
  0.5555557012654779  0.2777776321393313  0.8749999999990337
  0.5575468970255567  0.4439744529400995  0.3750000000029061
  0.5555563749011220  0.4444450308108054  0.8749999999990337
  0.5575468970273046  0.6135724439866207  0.3750000000029061
  0.5555563749028699  0.6111113439914799  0.8749999999990337
  0.5560354759785049  0.7787376185518373  0.3750000000029061
  0.5555557012674106  0.7777780691296495  0.8749999999990337
  0.5556575346687397  0.9447322153957559  0.3750000000029061
  0.5555555718913736  0.9444447158217995  0.8749999999990337
  0.7222222222002728  0.1111111110973297  0.3750000000029061
  0.7222222222002728  0.1111111110973297  0.8749999999990337
  0.7224080141286918  0.2776757987348759  0.3750000000029061
  0.7222224773321015  0.2777777615122418  0.8749999999990337
  0.7231945629024457  0.4444791240398647  0.3750000000029061
  0.7222231352648252  0.4444448819707927  0.8749999999990337
  0.7224224065232556  0.6112112032617236  0.3750000000029061
  0.7222217103572849  0.6111108551787381  0.8749999999990337
  0.7231945629059486  0.7787154388645133  0.3750000000029061
  0.7222231352683282  0.7777782532959651  0.8749999999990337
  0.7224080141290613  0.9447322153941927  0.3750000000029061
  0.7222224773324710  0.9444447158202363  0.8749999999990337
  0.8886011179034027  0.1109253191685340  0.3750000000029061
  0.8888886174773591  0.1111108559651245  0.8749999999990337
  0.8886011179051506  0.2776757987327514  0.3750000000029061
  0.8888886174791071  0.2777777615101172  0.8749999999990337
  0.8889317113670139  0.4445300893398983  0.3750000000029061
  0.8888892191067422  0.4444451048193543  0.8749999999990337
  0.8890306284829113  0.6112273486809733  0.3750000000029061
  0.8888890967220368  0.6111114811450703  0.8749999999990337
  0.8890306284846592  0.7778032798056256  0.3750000000029061
  0.8888890967237847  0.7777776155806542  0.8749999999990337
  0.8889317113689466  0.9444016219286488  0.3750000000029061
  0.8888892191086749  0.9444441141889205  0.8749999999990337
  0.3888888888991744  0.4444444443984210  0.3750000000029061
  0.3888888888991744  0.4444444443984210  0.3750000000029061
  0.2725174412236440  0.3862587206117262  0.3750000000029061
  0.4470746126874324  0.3862587206101630  0.3750000000029061
  0.4470746126891803  0.5608158921778538  0.3750000000029061
