Autosave                                
   1.00000000000000     
     9.9719791019000006  -17.2719744565000006    0.0000000000000000
     9.9719791019000006   17.2719744565000006    0.0000000000000000
     0.0000000000000000    0.0000000000000000   14.9998224099000002
   B    N    C    B   ele
  61   63    1    3     1
Direct
  0.0415223177931007  0.0832219224572382  0.5000000000033324
  0.0415404302731671  0.2082702150887250  0.5000000000033324
  0.0415223177950761  0.3333003952342762  0.5000000000033324
  0.0415252594738721  0.4583654556973301  0.5000000000033324
  0.0416963990602591  0.5833927980239981  0.5000000000033324
  0.0417450480861110  0.7083725239917684  0.5000000000033324
  0.0416963990622344  0.8333036009415241  0.5000000000033324
  0.0415252594728134  0.9581598036759504  0.5000000000033324
  0.1661268804877125  0.0826895783370219  0.5000000000033324
  0.1664206390302973  0.2080943504118123  0.5000000000033324
  0.1664206390323508  0.3333262885218440  0.5000000000033324
  0.1661268804867248  0.4584373020481878  0.5000000000033324
  0.1665063135257455  0.5834364428471192  0.5000000000033324
  0.1666274760070448  0.7083725239967138  0.5000000000033324
  0.1666274760069809  0.8332549519126313  0.5000000000033324
  0.1665063135247578  0.9580698705779634  0.5000000000033324
  0.2913305876395613  0.0826611751816790  0.5000000000033324
  0.2905108243093813  0.2068589195468970  0.5000000000033324
  0.2914430728880687  0.3332215363942324  0.5000000000033324
  0.2905108243034483  0.4586519046599103  0.5000000000033324
  0.2913305876435119  0.5836694123602468  0.5000000000033324
  0.2915635571516303  0.7084936864729967  0.5000000000033324
  0.2916072019747443  0.8333036009384830  0.5000000000033324
  0.2915635571536056  0.9580698705800098  0.5000000000033324
  0.4165626979545833  0.0826895783389972  0.5000000000033324
  0.4163480953398268  0.2068589195468259  0.5000000000033324
  0.4163480953388392  0.5844891756952941  0.5000000000033324
  0.4165626979505617  0.7088731195120245  0.5000000000033324
  0.4166345443064287  0.8334747405298866  0.5000000000033324
  0.4166345443034657  0.9581598036778547  0.5000000000033324
  0.5416996047635494  0.0832219224611888  0.5000000000033324
  0.5416737114808562  0.2080943504108247  0.5000000000033324
  0.5417784636075512  0.3332215363962077  0.5000000000033324
  0.5417784636045172  0.5835569271106809  0.5000000000033324
  0.5416737114819149  0.7085793609714149  0.5000000000033324
  0.5416996047644660  0.8334776822036661  0.5000000000033324
  0.5416846735833384  0.9583423367433486  0.5000000000033324
  0.6666966685193061  0.0833086442527272  0.5000000000033324
  0.6667297849140461  0.2082702150897126  0.5000000000033324
  0.6669056495879178  0.3333262885178863  0.5000000000033324
  0.6681410804519163  0.4586519046589226  0.5000000000033324
  0.6681410804568617  0.5844891756943775  0.5000000000033324
  0.6669056495869301  0.7085793609684449  0.5000000000033324
  0.6667297849150409  0.8334595697305918  0.5000000000033324
  0.6666966685222762  0.9583880241669749  0.5000000000033324
  0.7916666667026817  0.0833333333010771  0.5000000000033324
  0.7916913557460222  0.2083033314794363  0.5000000000033324
  0.7917780775375536  0.3333003952351928  0.5000000000033324
  0.7923104216647613  0.4584373020491754  0.5000000000033324
  0.7923388248170706  0.5836694123591881  0.5000000000033324
  0.7923104216667366  0.7088731195160461  0.5000000000033324
  0.7917780775415113  0.8334776822056486  0.5000000000033324
  0.7916913557440398  0.9583880241669038  0.5000000000033324
  0.9166119758318456  0.0833086442547025  0.5000000000033324
  0.9166119758317746  0.2083033314764733  0.5000000000033324
  0.9166576632604102  0.3333153264204204  0.5000000000033324
  0.9168401963208948  0.4583654556952837  0.5000000000033324
  0.9169301294237490  0.5834364428501532  0.5000000000033324
  0.9169301294207860  0.7084936864739844  0.5000000000033324
  0.9168401963227990  0.8334747405259288  0.5000000000033324
  0.9166576632613979  0.9583423367423609  0.5000000000033324
  0.0829735350451369  0.0413479286231040  0.5000000000033324
  0.0831537334838623  0.1665587807440105  0.5000000000033324
  0.0831537334837912  0.2915949528409123  0.5000000000033324
  0.0829735350491586  0.4166256065251326  0.5000000000033324
  0.0832361566114662  0.5416892518029104  0.5000000000033324
  0.0833485754288968  0.6666971509581935  0.5000000000033324
  0.0833485754309431  0.7916514245728159  0.5000000000033324
  0.0832361566104785  0.9165469049048131  0.5000000000033324
  0.2080316429312458  0.0412482105009071  0.5000000000033324
  0.2074744420286154  0.1657935013562119  0.5000000000033324
  0.2081509175717078  0.2915754588388533  0.5000000000033324
  0.2074744420305907  0.4166809407725403  0.5000000000033324
  0.2080316429272881  0.5417834325275056  0.5000000000033324
  0.2082524019241257  0.6667475980796331  0.5000000000033324
  0.2083028490405491  0.7916514245698529  0.5000000000033324
  0.2082524019181926  0.9165048039406714  0.5000000000033324
  0.3332165674702490  0.0412482105008360  0.5000000000033324
  0.3328976550627369  0.1657953102249642  0.5000000000033324
  0.3318154782778295  0.2897563779973740  0.5000000000033324
  0.3318154782748594  0.4170591003805214  0.5000000000033324
  0.3328976550667657  0.5421023449369929  0.5000000000033324
  0.3332165674712367  0.6669683570714541  0.5000000000033324
  0.3333107481958321  0.7917638433872759  0.5000000000033324
  0.3333107481978856  0.9165469049067884  0.5000000000033324
  0.4583743934806015  0.0413479286271257  0.5000000000033324
  0.4583190592272679  0.1657935013581943  0.5000000000033324
  0.4579408996191447  0.2897563779944039  0.5000000000033324
  0.4579408996182281  0.5431845217238829  0.5000000000033324
  0.4583190592262092  0.6675255579681516  0.5000000000033324
  0.4583743934786262  0.7920264649546004  0.5000000000033324
  0.4583710969580900  0.9166855485266799  0.5000000000033324
  0.5833909794223611  0.0416399348495059  0.5000000000033324
  0.5834050471568496  0.1665587807400527  0.5000000000033324
  0.5834245411658930  0.2915754588378657  0.5000000000033324
  0.5852436220043384  0.4170591003796048  0.5000000000033324
  0.5852436220013755  0.5431845217209199  0.5000000000033324
  0.5834245411649054  0.6668490824320509  0.5000000000033324
  0.5834050471578373  0.7918462665149583  0.5000000000033324
  0.5833909794224321  0.9167510446730630  0.5000000000033324
  0.7083596513169466  0.0416798257085061  0.5000000000033324
  0.7083745196009872  0.1666254804027718  0.5000000000033324
  0.7084412192586899  0.2915949528419000  0.5000000000033324
  0.7092064986405552  0.4166809407714815  0.5000000000033324
  0.7092046897737854  0.5421023449360053  0.5000000000033324
  0.7092064986425305  0.6675255579701269  0.5000000000033324
  0.7084412192597486  0.7918462665198965  0.5000000000033324
  0.7083745195990048  0.9167490392954530  0.5000000000033324
  0.8333201742932064  0.0416798257105524  0.5000000000033324
  0.8333201742902363  0.1666403486818030  0.5000000000033324
  0.8333600651492364  0.2916090205763812  0.5000000000033324
  0.8336520713766330  0.4166256065231573  0.5000000000033324
  0.8337517894979063  0.5417834325284933  0.5000000000033324
  0.8337517895028517  0.6669683570725199  0.5000000000033324
  0.8336520713756453  0.7920264649536127  0.5000000000033324
  0.8333600651473322  0.9167510446700290  0.5000000000033324
  0.9582489553287205  0.0416399348514102  0.5000000000033324
  0.9582509607032964  0.1666254803997378  0.5000000000033324
  0.9582489553306958  0.2916090205813266  0.5000000000033324
  0.9583144514720695  0.4166289030406594  0.5000000000033324
  0.9584530950969704  0.5416892518058734  0.5000000000033324
  0.9584951960580781  0.6667475980805568  0.5000000000033324
  0.9584530950939364  0.7917638433882636  0.5000000000033324
  0.9583144514731282  0.9166855485306306  0.5000000000033324
  0.4583333333018018  0.4166666667019570  0.5000000000033324
  0.4146653814234065  0.3293307627445730  0.5000000000033324
  0.4146653814254529  0.4603346185783059  0.5000000000033324
  0.5456692372541693  0.4603346185753429  0.5000000000033324
  0.4583333333018018  0.4166666667019570  0.5000000000033324
