Autosave
1.0
   7.4619090824         -12.9244056521         0.0000000000
   7.4619090824         12.9244056521         -0.0000000000
   -0.0000000000         0.0000000000         12.9145771255
  B      N    
144    144    
Direct
   0.1111111111         0.0555555556         0.3750000000
   0.1111111111         0.0555555556         0.8750000000
   0.1111111111         0.2222222222         0.3750000000
   0.1111111111         0.2222222222         0.8750000000
   0.1111111111         0.3888888889         0.3750000000
   0.1111111111         0.3888888889         0.8750000000
   0.1111111111         0.5555555556         0.3750000000
   0.1111111111         0.5555555556         0.8750000000
   0.1111111111         0.7222222222         0.3750000000
   0.1111111111         0.7222222222         0.8750000000
   0.1111111111         0.8888888889         0.3750000000
   0.1111111111         0.8888888889         0.8750000000
   0.2777777778         0.0555555556         0.3750000000
   0.2777777778         0.0555555556         0.8750000000
   0.2777777778         0.2222222222         0.3750000000
   0.2777777778         0.2222222222         0.8750000000
   0.2777777778         0.3888888889         0.3750000000
   0.2777777778         0.3888888889         0.8750000000
   0.2777777778         0.5555555556         0.3750000000
   0.2777777778         0.5555555556         0.8750000000
   0.2777777778         0.7222222222         0.3750000000
   0.2777777778         0.7222222222         0.8750000000
   0.2777777778         0.8888888889         0.3750000000
   0.2777777778         0.8888888889         0.8750000000
   0.4444444444         0.0555555556         0.3750000000
   0.4444444444         0.0555555556         0.8750000000
   0.4444444444         0.2222222222         0.3750000000
   0.4444444444         0.2222222222         0.8750000000
   0.4444444444         0.3888888889         0.3750000000
   0.4444444444         0.3888888889         0.8750000000
   0.4444444444         0.5555555556         0.3750000000
   0.4444444444         0.5555555556         0.8750000000
   0.4444444444         0.7222222222         0.3750000000
   0.4444444444         0.7222222222         0.8750000000
   0.4444444444         0.8888888889         0.3750000000
   0.4444444444         0.8888888889         0.8750000000
   0.6111111111         0.0555555556         0.3750000000
   0.6111111111         0.0555555556         0.8750000000
   0.6111111111         0.2222222222         0.3750000000
   0.6111111111         0.2222222222         0.8750000000
   0.6111111111         0.3888888889         0.3750000000
   0.6111111111         0.3888888889         0.8750000000
   0.6111111111         0.5555555556         0.3750000000
   0.6111111111         0.5555555556         0.8750000000
   0.6111111111         0.7222222222         0.3750000000
   0.6111111111         0.7222222222         0.8750000000
   0.6111111111         0.8888888889         0.3750000000
   0.6111111111         0.8888888889         0.8750000000
   0.7777777778         0.0555555556         0.3750000000
   0.7777777778         0.0555555556         0.8750000000
   0.7777777778         0.2222222222         0.3750000000
   0.7777777778         0.2222222222         0.8750000000
   0.7777777778         0.3888888889         0.3750000000
   0.7777777778         0.3888888889         0.8750000000
   0.7777777778         0.5555555556         0.3750000000
   0.7777777778         0.5555555556         0.8750000000
   0.7777777778         0.7222222222         0.3750000000
   0.7777777778         0.7222222222         0.8750000000
   0.7777777778         0.8888888889         0.3750000000
   0.7777777778         0.8888888889         0.8750000000
   0.9444444444         0.0555555556         0.3750000000
   0.9444444444         0.0555555556         0.8750000000
   0.9444444444         0.2222222222         0.3750000000
   0.9444444444         0.2222222222         0.8750000000
   0.9444444444         0.3888888889         0.3750000000
   0.9444444444         0.3888888889         0.8750000000
   0.9444444444         0.5555555556         0.3750000000
   0.9444444444         0.5555555556         0.8750000000
   0.9444444444         0.7222222222         0.3750000000
   0.9444444444         0.7222222222         0.8750000000
   0.9444444444         0.8888888889         0.3750000000
   0.9444444444         0.8888888889         0.8750000000
   0.0555555556         0.1111111111         0.1250000000
   0.0555555556         0.1111111111         0.6250000000
   0.0555555556         0.2777777778         0.1250000000
   0.0555555556         0.2777777778         0.6250000000
   0.0555555556         0.4444444444         0.1250000000
   0.0555555556         0.4444444444         0.6250000000
   0.0555555556         0.6111111111         0.1250000000
   0.0555555556         0.6111111111         0.6250000000
   0.0555555556         0.7777777778         0.1250000000
   0.0555555556         0.7777777778         0.6250000000
   0.0555555556         0.9444444444         0.1250000000
   0.0555555556         0.9444444444         0.6250000000
   0.2222222222         0.1111111111         0.1250000000
   0.2222222222         0.1111111111         0.6250000000
   0.2222222222         0.2777777778         0.1250000000
   0.2222222222         0.2777777778         0.6250000000
   0.2222222222         0.4444444444         0.1250000000
   0.2222222222         0.4444444444         0.6250000000
   0.2222222222         0.6111111111         0.1250000000
   0.2222222222         0.6111111111         0.6250000000
   0.2222222222         0.7777777778         0.1250000000
   0.2222222222         0.7777777778         0.6250000000
   0.2222222222         0.9444444444         0.1250000000
   0.2222222222         0.9444444444         0.6250000000
   0.3888888889         0.1111111111         0.1250000000
   0.3888888889         0.1111111111         0.6250000000
   0.3888888889         0.2777777778         0.1250000000
   0.3888888889         0.2777777778         0.6250000000
   0.3888888889         0.4444444444         0.1250000000
   0.3888888889         0.4444444444         0.6250000000
   0.3888888889         0.6111111111         0.1250000000
   0.3888888889         0.6111111111         0.6250000000
   0.3888888889         0.7777777778         0.1250000000
   0.3888888889         0.7777777778         0.6250000000
   0.3888888889         0.9444444444         0.1250000000
   0.3888888889         0.9444444444         0.6250000000
   0.5555555556         0.1111111111         0.1250000000
   0.5555555556         0.1111111111         0.6250000000
   0.5555555556         0.2777777778         0.1250000000
   0.5555555556         0.2777777778         0.6250000000
   0.5555555556         0.4444444444         0.1250000000
   0.5555555556         0.4444444444         0.6250000000
   0.5555555556         0.6111111111         0.1250000000
   0.5555555556         0.6111111111         0.6250000000
   0.5555555556         0.7777777778         0.1250000000
   0.5555555556         0.7777777778         0.6250000000
   0.5555555556         0.9444444444         0.1250000000
   0.5555555556         0.9444444444         0.6250000000
   0.7222222222         0.1111111111         0.1250000000
   0.7222222222         0.1111111111         0.6250000000
   0.7222222222         0.2777777778         0.1250000000
   0.7222222222         0.2777777778         0.6250000000
   0.7222222222         0.4444444444         0.1250000000
   0.7222222222         0.4444444444         0.6250000000
   0.7222222222         0.6111111111         0.1250000000
   0.7222222222         0.6111111111         0.6250000000
   0.7222222222         0.7777777778         0.1250000000
   0.7222222222         0.7777777778         0.6250000000
   0.7222222222         0.9444444444         0.1250000000
   0.7222222222         0.9444444444         0.6250000000
   0.8888888889         0.1111111111         0.1250000000
   0.8888888889         0.1111111111         0.6250000000
   0.8888888889         0.2777777778         0.1250000000
   0.8888888889         0.2777777778         0.6250000000
   0.8888888889         0.4444444444         0.1250000000
   0.8888888889         0.4444444444         0.6250000000
   0.8888888889         0.6111111111         0.1250000000
   0.8888888889         0.6111111111         0.6250000000
   0.8888888889         0.7777777778         0.1250000000
   0.8888888889         0.7777777778         0.6250000000
   0.8888888889         0.9444444444         0.1250000000
   0.8888888889         0.9444444444         0.6250000000
   0.1111111111         0.0555555556         0.1250000000
   0.1111111111         0.0555555556         0.6250000000
   0.1111111111         0.2222222222         0.1250000000
   0.1111111111         0.2222222222         0.6250000000
   0.1111111111         0.3888888889         0.1250000000
   0.1111111111         0.3888888889         0.6250000000
   0.1111111111         0.5555555556         0.1250000000
   0.1111111111         0.5555555556         0.6250000000
   0.1111111111         0.7222222222         0.1250000000
   0.1111111111         0.7222222222         0.6250000000
   0.1111111111         0.8888888889         0.1250000000
   0.1111111111         0.8888888889         0.6250000000
   0.2777777778         0.0555555556         0.1250000000
   0.2777777778         0.0555555556         0.6250000000
   0.2777777778         0.2222222222         0.1250000000
   0.2777777778         0.2222222222         0.6250000000
   0.2777777778         0.3888888889         0.1250000000
   0.2777777778         0.3888888889         0.6250000000
   0.2777777778         0.5555555556         0.1250000000
   0.2777777778         0.5555555556         0.6250000000
   0.2777777778         0.7222222222         0.1250000000
   0.2777777778         0.7222222222         0.6250000000
   0.2777777778         0.8888888889         0.1250000000
   0.2777777778         0.8888888889         0.6250000000
   0.4444444444         0.0555555556         0.1250000000
   0.4444444444         0.0555555556         0.6250000000
   0.4444444444         0.2222222222         0.1250000000
   0.4444444444         0.2222222222         0.6250000000
   0.4444444444         0.3888888889         0.1250000000
   0.4444444444         0.3888888889         0.6250000000
   0.4444444444         0.5555555556         0.1250000000
   0.4444444444         0.5555555556         0.6250000000
   0.4444444444         0.7222222222         0.1250000000
   0.4444444444         0.7222222222         0.6250000000
   0.4444444444         0.8888888889         0.1250000000
   0.4444444444         0.8888888889         0.6250000000
   0.6111111111         0.0555555556         0.1250000000
   0.6111111111         0.0555555556         0.6250000000
   0.6111111111         0.2222222222         0.1250000000
   0.6111111111         0.2222222222         0.6250000000
   0.6111111111         0.3888888889         0.1250000000
   0.6111111111         0.3888888889         0.6250000000
   0.6111111111         0.5555555556         0.1250000000
   0.6111111111         0.5555555556         0.6250000000
   0.6111111111         0.7222222222         0.1250000000
   0.6111111111         0.7222222222         0.6250000000
   0.6111111111         0.8888888889         0.1250000000
   0.6111111111         0.8888888889         0.6250000000
   0.7777777778         0.0555555556         0.1250000000
   0.7777777778         0.0555555556         0.6250000000
   0.7777777778         0.2222222222         0.1250000000
   0.7777777778         0.2222222222         0.6250000000
   0.7777777778         0.3888888889         0.1250000000
   0.7777777778         0.3888888889         0.6250000000
   0.7777777778         0.5555555556         0.1250000000
   0.7777777778         0.5555555556         0.6250000000
   0.7777777778         0.7222222222         0.1250000000
   0.7777777778         0.7222222222         0.6250000000
   0.7777777778         0.8888888889         0.1250000000
   0.7777777778         0.8888888889         0.6250000000
   0.9444444444         0.0555555556         0.1250000000
   0.9444444444         0.0555555556         0.6250000000
   0.9444444444         0.2222222222         0.1250000000
   0.9444444444         0.2222222222         0.6250000000
   0.9444444444         0.3888888889         0.1250000000
   0.9444444444         0.3888888889         0.6250000000
   0.9444444444         0.5555555556         0.1250000000
   0.9444444444         0.5555555556         0.6250000000
   0.9444444444         0.7222222222         0.1250000000
   0.9444444444         0.7222222222         0.6250000000
   0.9444444444         0.8888888889         0.1250000000
   0.9444444444         0.8888888889         0.6250000000
   0.0555555556         0.1111111111         0.3750000000
   0.0555555556         0.1111111111         0.8750000000
   0.0555555556         0.2777777778         0.3750000000
   0.0555555556         0.2777777778         0.8750000000
   0.0555555556         0.4444444444         0.3750000000
   0.0555555556         0.4444444444         0.8750000000
   0.0555555556         0.6111111111         0.3750000000
   0.0555555556         0.6111111111         0.8750000000
   0.0555555556         0.7777777778         0.3750000000
   0.0555555556         0.7777777778         0.8750000000
   0.0555555556         0.9444444444         0.3750000000
   0.0555555556         0.9444444444         0.8750000000
   0.2222222222         0.1111111111         0.3750000000
   0.2222222222         0.1111111111         0.8750000000
   0.2222222222         0.2777777778         0.3750000000
   0.2222222222         0.2777777778         0.8750000000
   0.2222222222         0.4444444444         0.3750000000
   0.2222222222         0.4444444444         0.8750000000
   0.2222222222         0.6111111111         0.3750000000
   0.2222222222         0.6111111111         0.8750000000
   0.2222222222         0.7777777778         0.3750000000
   0.2222222222         0.7777777778         0.8750000000
   0.2222222222         0.9444444444         0.3750000000
   0.2222222222         0.9444444444         0.8750000000
   0.3888888889         0.1111111111         0.3750000000
   0.3888888889         0.1111111111         0.8750000000
   0.3888888889         0.2777777778         0.3750000000
   0.3888888889         0.2777777778         0.8750000000
   0.3888888889         0.4444444444         0.3750000000
   0.3888888889         0.4444444444         0.8750000000
   0.3888888889         0.6111111111         0.3750000000
   0.3888888889         0.6111111111         0.8750000000
   0.3888888889         0.7777777778         0.3750000000
   0.3888888889         0.7777777778         0.8750000000
   0.3888888889         0.9444444444         0.3750000000
   0.3888888889         0.9444444444         0.8750000000
   0.5555555556         0.1111111111         0.3750000000
   0.5555555556         0.1111111111         0.8750000000
   0.5555555556         0.2777777778         0.3750000000
   0.5555555556         0.2777777778         0.8750000000
   0.5555555556         0.4444444444         0.3750000000
   0.5555555556         0.4444444444         0.8750000000
   0.5555555556         0.6111111111         0.3750000000
   0.5555555556         0.6111111111         0.8750000000
   0.5555555556         0.7777777778         0.3750000000
   0.5555555556         0.7777777778         0.8750000000
   0.5555555556         0.9444444444         0.3750000000
   0.5555555556         0.9444444444         0.8750000000
   0.7222222222         0.1111111111         0.3750000000
   0.7222222222         0.1111111111         0.8750000000
   0.7222222222         0.2777777778         0.3750000000
   0.7222222222         0.2777777778         0.8750000000
   0.7222222222         0.4444444444         0.3750000000
   0.7222222222         0.4444444444         0.8750000000
   0.7222222222         0.6111111111         0.3750000000
   0.7222222222         0.6111111111         0.8750000000
   0.7222222222         0.7777777778         0.3750000000
   0.7222222222         0.7777777778         0.8750000000
   0.7222222222         0.9444444444         0.3750000000
   0.7222222222         0.9444444444         0.8750000000
   0.8888888889         0.1111111111         0.3750000000
   0.8888888889         0.1111111111         0.8750000000
   0.8888888889         0.2777777778         0.3750000000
   0.8888888889         0.2777777778         0.8750000000
   0.8888888889         0.4444444444         0.3750000000
   0.8888888889         0.4444444444         0.8750000000
   0.8888888889         0.6111111111         0.3750000000
   0.8888888889         0.6111111111         0.8750000000
   0.8888888889         0.7777777778         0.3750000000
   0.8888888889         0.7777777778         0.8750000000
   0.8888888889         0.9444444444         0.3750000000
   0.8888888889         0.9444444444         0.8750000000
