POSCAR_of_bath_mos2_1
1.0
   79.60395	    0.00000	    0.00000
    0.00000	   79.05008	    0.00000
    0.00000	    0.00000	    4.56565
 Mo   S  
 725   1473  
Direct
 0.040000025	 0.023255764	 0.657078401
 0.020000013	 0.058139600	 0.657078401
 0.079999925	 0.023255764	 0.657078401
 0.060000038	 0.058139600	 0.657078401
 0.040000025	 0.093023309	 0.657078401
 0.020000013	 0.127907018	 0.657078401
 0.119999950	 0.023255764	 0.657078401
 0.099999937	 0.058139600	 0.657078401
 0.079999925	 0.093023309	 0.657078401
 0.060000038	 0.127907018	 0.657078401
 0.040000025	 0.162790727	 0.657078401
 0.020000013	 0.197674436	 0.657078401
 0.159999975	 0.023255764	 0.657078401
 0.139999962	 0.058139600	 0.657078401
 0.119999950	 0.093023309	 0.657078401
 0.099999937	 0.127907018	 0.657078401
 0.079999925	 0.162790727	 0.657078401
 0.060000038	 0.197674436	 0.657078401
 0.200000000	 0.023255764	 0.657078401
 0.179999987	 0.058139600	 0.657078401
 0.159999975	 0.093023309	 0.657078401
 0.139999962	 0.127907018	 0.657078401
 0.119999950	 0.162790727	 0.657078401
 0.099999937	 0.197674436	 0.657078401
 0.040000025	 0.232558145	 0.657078401
 0.020000013	 0.267441855	 0.657078401
 0.079999925	 0.232558145	 0.657078401
 0.060000038	 0.267441855	 0.657078401
 0.040000025	 0.302325564	 0.657078401
 0.020000013	 0.337209273	 0.657078401
 0.240000025	 0.023255764	 0.657078401
 0.220000013	 0.058139600	 0.657078401
 0.200000000	 0.093023309	 0.657078401
 0.179999987	 0.127907018	 0.657078401
 0.159999975	 0.162790727	 0.657078401
 0.139999962	 0.197674436	 0.657078401
 0.279999925	 0.023255764	 0.657078401
 0.260000038	 0.058139600	 0.657078401
 0.240000025	 0.093023309	 0.657078401
 0.220000013	 0.127907018	 0.657078401
 0.200000000	 0.162790727	 0.657078401
 0.179999987	 0.197674436	 0.657078401
 0.319999950	 0.023255764	 0.657078401
 0.299999937	 0.058139600	 0.657078401
 0.279999925	 0.093023309	 0.657078401
 0.260000038	 0.127907018	 0.657078401
 0.240000025	 0.162790727	 0.657078401
 0.220000013	 0.197674436	 0.657078401
 0.359999975	 0.023255764	 0.657078401
 0.339999962	 0.058139600	 0.657078401
 0.319999950	 0.093023309	 0.657078401
 0.299999937	 0.127907018	 0.657078401
 0.279999925	 0.162790727	 0.657078401
 0.260000038	 0.197674436	 0.657078401
 0.400000000	 0.023255764	 0.657078401
 0.379999987	 0.058139600	 0.657078401
 0.359999975	 0.093023309	 0.657078401
 0.339999962	 0.127907018	 0.657078401
 0.319999950	 0.162790727	 0.657078401
 0.299999937	 0.197674436	 0.657078401
 0.440000025	 0.023255764	 0.657078401
 0.420000013	 0.058139600	 0.657078401
 0.400000000	 0.093023309	 0.657078401
 0.379999987	 0.127907018	 0.657078401
 0.359999975	 0.162790727	 0.657078401
 0.339999962	 0.197674436	 0.657078401
 0.119999950	 0.232558145	 0.657078401
 0.099999937	 0.267441855	 0.657078401
 0.079999925	 0.302325564	 0.657078401
 0.059999912	 0.337209273	 0.657078401
 0.040000025	 0.372092982	 0.657078401
 0.020000013	 0.406976818	 0.657078401
 0.159999975	 0.232558145	 0.657078401
 0.139999962	 0.267441855	 0.657078401
 0.119999950	 0.302325564	 0.657078401
 0.099999937	 0.337209273	 0.657078401
 0.079999925	 0.372092982	 0.657078401
 0.060000038	 0.406976818	 0.657078401
 0.200000000	 0.232558145	 0.657078401
 0.179999987	 0.267441855	 0.657078401
 0.159999975	 0.302325564	 0.657078401
 0.139999962	 0.337209273	 0.657078401
 0.119999950	 0.372092982	 0.657078401
 0.099999937	 0.406976818	 0.657078401
 0.240000025	 0.232558145	 0.657078401
 0.220000013	 0.267441855	 0.657078401
 0.200000000	 0.302325564	 0.657078401
 0.179999987	 0.337209273	 0.657078401
 0.159999975	 0.372092982	 0.657078401
 0.139999962	 0.406976818	 0.657078401
 0.279999925	 0.232558145	 0.657078401
 0.259999912	 0.267441855	 0.657078401
 0.240000025	 0.302325564	 0.657078401
 0.220000013	 0.337209273	 0.657078401
 0.200000000	 0.372092982	 0.657078401
 0.179999987	 0.406976818	 0.657078401
 0.319999950	 0.232558145	 0.657078401
 0.299999937	 0.267441855	 0.657078401
 0.279999925	 0.302325564	 0.657078401
 0.260000038	 0.337209273	 0.657078401
 0.240000025	 0.372092982	 0.657078401
 0.220000013	 0.406976818	 0.657078401
 0.040000025	 0.441860527	 0.657078401
 0.020000013	 0.476744236	 0.657078401
 0.079999925	 0.441860527	 0.657078401
 0.059999912	 0.476744236	 0.657078401
 0.040000025	 0.511627945	 0.657078401
 0.020000013	 0.546511654	 0.657078401
 0.119999950	 0.441860527	 0.657078401
 0.099999937	 0.476744236	 0.657078401
 0.079999925	 0.511627945	 0.657078401
 0.060000038	 0.546511654	 0.657078401
 0.040000025	 0.581395364	 0.657078401
 0.020000013	 0.616279073	 0.657078401
 0.159999975	 0.441860527	 0.657078401
 0.139999962	 0.476744236	 0.657078401
 0.119999950	 0.511627945	 0.657078401
 0.099999937	 0.546511654	 0.657078401
 0.079999925	 0.581395364	 0.657078401
 0.059999912	 0.616279073	 0.657078401
 0.200000000	 0.441860527	 0.657078401
 0.179999987	 0.476744236	 0.657078401
 0.159999975	 0.511627945	 0.657078401
 0.139999962	 0.546511654	 0.657078401
 0.119999950	 0.581395364	 0.657078401
 0.099999937	 0.616279073	 0.657078401
 0.040000025	 0.651162782	 0.657078401
 0.020000013	 0.686046491	 0.657078401
 0.079999925	 0.651162782	 0.657078401
 0.059999912	 0.686046491	 0.657078401
 0.040000025	 0.720930200	 0.657078401
 0.020000013	 0.755814036	 0.657078401
 0.479999925	 0.023255764	 0.657078401
 0.460000038	 0.058139600	 0.657078401
 0.440000025	 0.093023309	 0.657078401
 0.420000013	 0.127907018	 0.657078401
 0.400000000	 0.162790727	 0.657078401
 0.379999987	 0.197674436	 0.657078401
 0.519999950	 0.023255764	 0.657078401
 0.499999937	 0.058139600	 0.657078401
 0.479999925	 0.093023309	 0.657078401
 0.460000038	 0.127907018	 0.657078401
 0.440000025	 0.162790727	 0.657078401
 0.420000013	 0.197674436	 0.657078401
 0.559999975	 0.023255764	 0.657078401
 0.539999962	 0.058139600	 0.657078401
 0.519999950	 0.093023309	 0.657078401
 0.499999937	 0.127907018	 0.657078401
 0.479999925	 0.162790727	 0.657078401
 0.460000038	 0.197674436	 0.657078401
 0.600000000	 0.023255764	 0.657078401
 0.579999987	 0.058139600	 0.657078401
 0.559999975	 0.093023309	 0.657078401
 0.539999962	 0.127907018	 0.657078401
 0.519999950	 0.162790727	 0.657078401
 0.499999937	 0.197674436	 0.657078401
 0.640000025	 0.023255764	 0.657078401
 0.620000013	 0.058139600	 0.657078401
 0.600000000	 0.093023309	 0.657078401
 0.579999987	 0.127907018	 0.657078401
 0.559999975	 0.162790727	 0.657078401
 0.539999962	 0.197674436	 0.657078401
 0.679999925	 0.023255764	 0.657078401
 0.660000038	 0.058139600	 0.657078401
 0.640000025	 0.093023309	 0.657078401
 0.620000013	 0.127907018	 0.657078401
 0.600000000	 0.162790727	 0.657078401
 0.579999987	 0.197674436	 0.657078401
 0.359999975	 0.232558145	 0.657078401
 0.339999962	 0.267441855	 0.657078401
 0.319999950	 0.302325564	 0.657078401
 0.299999937	 0.337209273	 0.657078401
 0.279999925	 0.372092982	 0.657078401
 0.260000038	 0.406976818	 0.657078401
 0.400000000	 0.232558145	 0.657078401
 0.379999987	 0.267441855	 0.657078401
 0.359999975	 0.302325564	 0.657078401
 0.339999962	 0.337209273	 0.657078401
 0.319999950	 0.372092982	 0.657078401
 0.299999937	 0.406976818	 0.657078401
 0.440000025	 0.232558145	 0.657078401
 0.420000013	 0.267441855	 0.657078401
 0.400000000	 0.302325564	 0.657078401
 0.379999987	 0.337209273	 0.657078401
 0.359999975	 0.372092982	 0.657078401
 0.339999962	 0.406976818	 0.657078401
 0.479999925	 0.232558145	 0.657078401
 0.460000038	 0.267441855	 0.657078401
 0.440000025	 0.302325564	 0.657078401
 0.420000013	 0.337209273	 0.657078401
 0.400000000	 0.372092982	 0.657078401
 0.379999987	 0.406976818	 0.657078401
 0.519999950	 0.232558145	 0.657078401
 0.499999937	 0.267441855	 0.657078401
 0.479999925	 0.302325564	 0.657078401
 0.459999912	 0.337209273	 0.657078401
 0.440000025	 0.372092982	 0.657078401
 0.420000013	 0.406976818	 0.657078401
 0.559999975	 0.232558145	 0.657078401
 0.539999962	 0.267441855	 0.657078401
 0.519999950	 0.302325564	 0.657078401
 0.499999937	 0.337209273	 0.657078401
 0.479999925	 0.372092982	 0.657078401
 0.460000038	 0.406976818	 0.657078401
 0.240000025	 0.441860527	 0.657078401
 0.220000013	 0.476744236	 0.657078401
 0.200000000	 0.511627945	 0.657078401
 0.179999987	 0.546511654	 0.657078401
 0.159999975	 0.581395364	 0.657078401
 0.139999962	 0.616279073	 0.657078401
 0.279999925	 0.441860527	 0.657078401
 0.259999912	 0.476744236	 0.657078401
 0.240000025	 0.511627945	 0.657078401
 0.220000013	 0.546511654	 0.657078401
 0.200000000	 0.581395364	 0.657078401
 0.179999987	 0.616279073	 0.657078401
 0.319999950	 0.441860527	 0.657078401
 0.299999937	 0.476744236	 0.657078401
 0.279999925	 0.511627945	 0.657078401
 0.259999912	 0.546511654	 0.657078401
 0.240000025	 0.581395364	 0.657078401
 0.220000013	 0.616279073	 0.657078401
 0.359999975	 0.441860527	 0.657078401
 0.339999962	 0.476744236	 0.657078401
 0.319999950	 0.511627945	 0.657078401
 0.299999937	 0.546511654	 0.657078401
 0.279999925	 0.581395364	 0.657078401
 0.260000038	 0.616279073	 0.657078401
 0.400000000	 0.441860527	 0.657078401
 0.379999987	 0.476744236	 0.657078401
 0.359999975	 0.511627945	 0.657078401
 0.339999962	 0.546511654	 0.657078401
 0.319999950	 0.581395364	 0.657078401
 0.299999937	 0.616279073	 0.657078401
 0.440000025	 0.441860527	 0.657078401
 0.420000013	 0.476744236	 0.657078401
 0.400000000	 0.511627945	 0.657078401
 0.379999987	 0.546511654	 0.657078401
 0.359999975	 0.581395364	 0.657078401
 0.339999962	 0.616279073	 0.657078401
 0.119999950	 0.651162782	 0.657078401
 0.099999937	 0.686046491	 0.657078401
 0.079999925	 0.720930200	 0.657078401
 0.059999912	 0.755814036	 0.657078401
 0.040000025	 0.790697745	 0.657078401
 0.020000013	 0.825581454	 0.657078401
 0.159999975	 0.651162782	 0.657078401
 0.139999962	 0.686046491	 0.657078401
 0.119999950	 0.720930200	 0.657078401
 0.099999937	 0.755814036	 0.657078401
 0.079999925	 0.790697745	 0.657078401
 0.059999912	 0.825581454	 0.657078401
 0.200000000	 0.651162782	 0.657078401
 0.179999987	 0.686046491	 0.657078401
 0.159999975	 0.720930200	 0.657078401
 0.139999962	 0.755814036	 0.657078401
 0.119999950	 0.790697745	 0.657078401
 0.099999937	 0.825581454	 0.657078401
 0.240000025	 0.651162782	 0.657078401
 0.220000013	 0.686046491	 0.657078401
 0.200000000	 0.720930200	 0.657078401
 0.179999987	 0.755814036	 0.657078401
 0.159999975	 0.790697745	 0.657078401
 0.139999962	 0.825581454	 0.657078401
 0.279999925	 0.651162782	 0.657078401
 0.259999912	 0.686046491	 0.657078401
 0.240000025	 0.720930200	 0.657078401
 0.220000013	 0.755814036	 0.657078401
 0.200000000	 0.790697745	 0.657078401
 0.179999987	 0.825581454	 0.657078401
 0.319999950	 0.651162782	 0.657078401
 0.299999937	 0.686046491	 0.657078401
 0.279999925	 0.720930200	 0.657078401
 0.259999912	 0.755814036	 0.657078401
 0.240000025	 0.790697745	 0.657078401
 0.220000013	 0.825581454	 0.657078401
 0.040000025	 0.860465163	 0.657078401
 0.020000013	 0.895348873	 0.657078401
 0.079999925	 0.860465163	 0.657078401
 0.059999912	 0.895348873	 0.657078401
 0.040000025	 0.930232582	 0.657078401
 0.020000013	 0.965116291	 0.657078401
 0.119999950	 0.860465163	 0.657078401
 0.099999937	 0.895348873	 0.657078401
 0.079999925	 0.930232582	 0.657078401
 0.059999912	 0.965116291	 0.657078401
 0.040000025	 1.000000000	 0.657078401
 0.159999975	 0.860465163	 0.657078401
 0.139999962	 0.895348873	 0.657078401
 0.119999950	 0.930232582	 0.657078401
 0.099999937	 0.965116291	 0.657078401
 0.079999925	 1.000000000	 0.657078401
 0.200000000	 0.860465163	 0.657078401
 0.179999987	 0.895348873	 0.657078401
 0.159999975	 0.930232582	 0.657078401
 0.139999962	 0.965116291	 0.657078401
 0.119999950	 1.000000000	 0.657078401
 0.719999950	 0.023255764	 0.657078401
 0.699999937	 0.058139600	 0.657078401
 0.679999925	 0.093023309	 0.657078401
 0.660000038	 0.127907018	 0.657078401
 0.640000025	 0.162790727	 0.657078401
 0.620000013	 0.197674436	 0.657078401
 0.759999975	 0.023255764	 0.657078401
 0.739999962	 0.058139600	 0.657078401
 0.719999950	 0.093023309	 0.657078401
 0.699999937	 0.127907018	 0.657078401
 0.679999925	 0.162790727	 0.657078401
 0.660000038	 0.197674436	 0.657078401
 0.800000000	 0.023255764	 0.657078401
 0.779999987	 0.058139600	 0.657078401
 0.759999975	 0.093023309	 0.657078401
 0.739999962	 0.127907018	 0.657078401
 0.719999950	 0.162790727	 0.657078401
 0.699999937	 0.197674436	 0.657078401
 0.840000025	 0.023255764	 0.657078401
 0.820000013	 0.058139600	 0.657078401
 0.800000000	 0.093023309	 0.657078401
 0.779999987	 0.127907018	 0.657078401
 0.759999975	 0.162790727	 0.657078401
 0.739999962	 0.197674436	 0.657078401
 0.879999925	 0.023255764	 0.657078401
 0.860000038	 0.058139600	 0.657078401
 0.840000025	 0.093023309	 0.657078401
 0.820000013	 0.127907018	 0.657078401
 0.800000000	 0.162790727	 0.657078401
 0.779999987	 0.197674436	 0.657078401
 0.919999950	 0.023255764	 0.657078401
 0.899999937	 0.058139600	 0.657078401
 0.879999925	 0.093023309	 0.657078401
 0.860000038	 0.127907018	 0.657078401
 0.840000025	 0.162790727	 0.657078401
 0.820000013	 0.197674436	 0.657078401
 0.600000000	 0.232558145	 0.657078401
 0.579999987	 0.267441855	 0.657078401
 0.559999975	 0.302325564	 0.657078401
 0.539999962	 0.337209273	 0.657078401
 0.519999950	 0.372092982	 0.657078401
 0.499999937	 0.406976818	 0.657078401
 0.640000025	 0.232558145	 0.657078401
 0.620000013	 0.267441855	 0.657078401
 0.600000000	 0.302325564	 0.657078401
 0.579999987	 0.337209273	 0.657078401
 0.559999975	 0.372092982	 0.657078401
 0.539999962	 0.406976818	 0.657078401
 0.679999925	 0.232558145	 0.657078401
 0.660000038	 0.267441855	 0.657078401
 0.640000025	 0.302325564	 0.657078401
 0.620000013	 0.337209273	 0.657078401
 0.600000000	 0.372092982	 0.657078401
 0.579999987	 0.406976818	 0.657078401
 0.719999950	 0.232558145	 0.657078401
 0.699999937	 0.267441855	 0.657078401
 0.679999925	 0.302325564	 0.657078401
 0.660000038	 0.337209273	 0.657078401
 0.640000025	 0.372092982	 0.657078401
 0.620000013	 0.406976818	 0.657078401
 0.759999975	 0.232558145	 0.657078401
 0.739999962	 0.267441855	 0.657078401
 0.719999950	 0.302325564	 0.657078401
 0.699999937	 0.337209273	 0.657078401
 0.679999925	 0.372092982	 0.657078401
 0.659999912	 0.406976818	 0.657078401
 0.800000000	 0.232558145	 0.657078401
 0.779999987	 0.267441855	 0.657078401
 0.759999975	 0.302325564	 0.657078401
 0.739999962	 0.337209273	 0.657078401
 0.719999950	 0.372092982	 0.657078401
 0.699999937	 0.406976818	 0.657078401
 0.479999925	 0.441860527	 0.657078401
 0.459999912	 0.476744236	 0.657078401
 0.440000025	 0.511627945	 0.657078401
 0.420000013	 0.546511654	 0.657078401
 0.400000000	 0.581395364	 0.657078401
 0.379999987	 0.616279073	 0.657078401
 0.519999950	 0.441860527	 0.657078401
 0.499999937	 0.476744236	 0.657078401
 0.479999925	 0.511627945	 0.657078401
 0.459999912	 0.546511654	 0.657078401
 0.440000025	 0.581395364	 0.657078401
 0.420000013	 0.616279073	 0.657078401
 0.559999975	 0.441860527	 0.657078401
 0.539999962	 0.476744236	 0.657078401
 0.519999950	 0.511627945	 0.657078401
 0.499999937	 0.546511654	 0.657078401
 0.479999925	 0.581395364	 0.657078401
 0.459999912	 0.616279073	 0.657078401
 0.600000000	 0.441860527	 0.657078401
 0.579999987	 0.476744236	 0.657078401
 0.559999975	 0.511627945	 0.657078401
 0.539999962	 0.546511654	 0.657078401
 0.519999950	 0.581395364	 0.657078401
 0.499999937	 0.616279073	 0.657078401
 0.640000025	 0.441860527	 0.657078401
 0.620000013	 0.476744236	 0.657078401
 0.600000000	 0.511627945	 0.657078401
 0.579999987	 0.546511654	 0.657078401
 0.559999975	 0.581395364	 0.657078401
 0.539999962	 0.616279073	 0.657078401
 0.679999925	 0.441860527	 0.657078401
 0.660000038	 0.476744236	 0.657078401
 0.640000025	 0.511627945	 0.657078401
 0.620000013	 0.546511654	 0.657078401
 0.600000000	 0.581395364	 0.657078401
 0.579999987	 0.616279073	 0.657078401
 0.359999975	 0.651162782	 0.657078401
 0.339999962	 0.686046491	 0.657078401
 0.319999950	 0.720930200	 0.657078401
 0.299999937	 0.755814036	 0.657078401
 0.279999925	 0.790697745	 0.657078401
 0.259999912	 0.825581454	 0.657078401
 0.400000000	 0.651162782	 0.657078401
 0.379999987	 0.686046491	 0.657078401
 0.359999975	 0.720930200	 0.657078401
 0.339999962	 0.755814036	 0.657078401
 0.319999950	 0.790697745	 0.657078401
 0.299999937	 0.825581454	 0.657078401
 0.440000025	 0.651162782	 0.657078401
 0.420000013	 0.686046491	 0.657078401
 0.400000000	 0.720930200	 0.657078401
 0.379999987	 0.755814036	 0.657078401
 0.359999975	 0.790697745	 0.657078401
 0.339999962	 0.825581454	 0.657078401
 0.479999925	 0.651162782	 0.657078401
 0.460000038	 0.686046491	 0.657078401
 0.440000025	 0.720930200	 0.657078401
 0.420000013	 0.755814036	 0.657078401
 0.400000000	 0.790697745	 0.657078401
 0.379999987	 0.825581454	 0.657078401
 0.519999950	 0.651162782	 0.657078401
 0.499999937	 0.686046491	 0.657078401
 0.479999925	 0.720930200	 0.657078401
 0.459999912	 0.755814036	 0.657078401
 0.439999900	 0.790697745	 0.657078401
 0.420000013	 0.825581454	 0.657078401
 0.559999975	 0.651162782	 0.657078401
 0.539999962	 0.686046491	 0.657078401
 0.519999950	 0.720930200	 0.657078401
 0.499999937	 0.755814036	 0.657078401
 0.479999925	 0.790697745	 0.657078401
 0.459999912	 0.825581454	 0.657078401
 0.240000025	 0.860465163	 0.657078401
 0.220000013	 0.895348873	 0.657078401
 0.200000000	 0.930232582	 0.657078401
 0.179999987	 0.965116291	 0.657078401
 0.159999975	 1.000000000	 0.657078401
 0.279999925	 0.860465163	 0.657078401
 0.259999912	 0.895348873	 0.657078401
 0.240000025	 0.930232582	 0.657078401
 0.220000013	 0.965116291	 0.657078401
 0.200000000	 1.000000000	 0.657078401
 0.319999950	 0.860465163	 0.657078401
 0.299999937	 0.895348873	 0.657078401
 0.279999925	 0.930232582	 0.657078401
 0.259999912	 0.965116291	 0.657078401
 0.239999900	 1.000000000	 0.657078401
 0.359999975	 0.860465163	 0.657078401
 0.339999962	 0.895348873	 0.657078401
 0.319999950	 0.930232582	 0.657078401
 0.299999937	 0.965116291	 0.657078401
 0.279999925	 1.000000000	 0.657078401
 0.400000000	 0.860465163	 0.657078401
 0.379999987	 0.895348873	 0.657078401
 0.359999975	 0.930232582	 0.657078401
 0.339999962	 0.965116291	 0.657078401
 0.319999950	 1.000000000	 0.657078401
 0.440000025	 0.860465163	 0.657078401
 0.420000013	 0.895348873	 0.657078401
 0.400000000	 0.930232582	 0.657078401
 0.379999987	 0.965116291	 0.657078401
 0.359999975	 1.000000000	 0.657078401
 0.959999975	 0.023255764	 0.657078401
 0.939999962	 0.058139600	 0.657078401
 0.919999950	 0.093023309	 0.657078401
 0.899999937	 0.127907018	 0.657078401
 0.879999925	 0.162790727	 0.657078401
 0.860000038	 0.197674436	 0.657078401
 1.000000000	 0.023255764	 0.657078401
 0.979999987	 0.058139600	 0.657078401
 0.959999975	 0.093023309	 0.657078401
 0.939999962	 0.127907018	 0.657078401
 0.919999950	 0.162790727	 0.657078401
 0.899999937	 0.197674436	 0.657078401
 1.000000000	 0.093023309	 0.657078401
 0.979999987	 0.127907018	 0.657078401
 0.959999975	 0.162790727	 0.657078401
 0.939999962	 0.197674436	 0.657078401
 1.000000000	 0.162790727	 0.657078401
 0.979999987	 0.197674436	 0.657078401
 0.840000025	 0.232558145	 0.657078401
 0.820000013	 0.267441855	 0.657078401
 0.800000000	 0.302325564	 0.657078401
 0.779999987	 0.337209273	 0.657078401
 0.759999975	 0.372092982	 0.657078401
 0.739999962	 0.406976818	 0.657078401
 0.879999925	 0.232558145	 0.657078401
 0.860000038	 0.267441855	 0.657078401
 0.840000025	 0.302325564	 0.657078401
 0.820000013	 0.337209273	 0.657078401
 0.800000000	 0.372092982	 0.657078401
 0.779999987	 0.406976818	 0.657078401
 0.919999950	 0.232558145	 0.657078401
 0.899999937	 0.267441855	 0.657078401
 0.879999925	 0.302325564	 0.657078401
 0.860000038	 0.337209273	 0.657078401
 0.840000025	 0.372092982	 0.657078401
 0.820000013	 0.406976818	 0.657078401
 0.959999975	 0.232558145	 0.657078401
 0.939999962	 0.267441855	 0.657078401
 0.919999950	 0.302325564	 0.657078401
 0.899999937	 0.337209273	 0.657078401
 0.879999925	 0.372092982	 0.657078401
 0.860000038	 0.406976818	 0.657078401
 1.000000000	 0.232558145	 0.657078401
 0.979999987	 0.267441855	 0.657078401
 0.959999975	 0.302325564	 0.657078401
 0.939999962	 0.337209273	 0.657078401
 0.919999950	 0.372092982	 0.657078401
 0.899999937	 0.406976818	 0.657078401
 1.000000000	 0.302325564	 0.657078401
 0.979999987	 0.337209273	 0.657078401
 0.959999975	 0.372092982	 0.657078401
 0.939999962	 0.406976818	 0.657078401
 0.719999950	 0.441860527	 0.657078401
 0.699999937	 0.476744236	 0.657078401
 0.679999925	 0.511627945	 0.657078401
 0.659999912	 0.546511654	 0.657078401
 0.640000025	 0.581395364	 0.657078401
 0.620000013	 0.616279073	 0.657078401
 0.759999975	 0.441860527	 0.657078401
 0.739999962	 0.476744236	 0.657078401
 0.719999950	 0.511627945	 0.657078401
 0.699999937	 0.546511654	 0.657078401
 0.679999925	 0.581395364	 0.657078401
 0.659999912	 0.616279073	 0.657078401
 0.800000000	 0.441860527	 0.657078401
 0.779999987	 0.476744236	 0.657078401
 0.759999975	 0.511627945	 0.657078401
 0.739999962	 0.546511654	 0.657078401
 0.719999950	 0.581395364	 0.657078401
 0.699999937	 0.616279073	 0.657078401
 0.840000025	 0.441860527	 0.657078401
 0.820000013	 0.476744236	 0.657078401
 0.800000000	 0.511627945	 0.657078401
 0.779999987	 0.546511654	 0.657078401
 0.759999975	 0.581395364	 0.657078401
 0.739999962	 0.616279073	 0.657078401
 0.879999925	 0.441860527	 0.657078401
 0.859999912	 0.476744236	 0.657078401
 0.840000025	 0.511627945	 0.657078401
 0.820000013	 0.546511654	 0.657078401
 0.800000000	 0.581395364	 0.657078401
 0.779999987	 0.616279073	 0.657078401
 0.919999950	 0.441860527	 0.657078401
 0.899999937	 0.476744236	 0.657078401
 0.879999925	 0.511627945	 0.657078401
 0.859999912	 0.546511654	 0.657078401
 0.840000025	 0.581395364	 0.657078401
 0.820000013	 0.616279073	 0.657078401
 0.600000000	 0.651162782	 0.657078401
 0.579999987	 0.686046491	 0.657078401
 0.559999975	 0.720930200	 0.657078401
 0.539999962	 0.755814036	 0.657078401
 0.519999950	 0.790697745	 0.657078401
 0.499999937	 0.825581454	 0.657078401
 0.640000025	 0.651162782	 0.657078401
 0.620000013	 0.686046491	 0.657078401
 0.600000000	 0.720930200	 0.657078401
 0.579999987	 0.755814036	 0.657078401
 0.559999975	 0.790697745	 0.657078401
 0.539999962	 0.825581454	 0.657078401
 0.679999925	 0.651162782	 0.657078401
 0.659999912	 0.686046491	 0.657078401
 0.640000025	 0.720930200	 0.657078401
 0.620000013	 0.755814036	 0.657078401
 0.600000000	 0.790697745	 0.657078401
 0.579999987	 0.825581454	 0.657078401
 0.719999950	 0.651162782	 0.657078401
 0.699999937	 0.686046491	 0.657078401
 0.679999925	 0.720930200	 0.657078401
 0.659999912	 0.755814036	 0.657078401
 0.640000025	 0.790697745	 0.657078401
 0.620000013	 0.825581454	 0.657078401
 0.759999975	 0.651162782	 0.657078401
 0.739999962	 0.686046491	 0.657078401
 0.719999950	 0.720930200	 0.657078401
 0.699999937	 0.755814036	 0.657078401
 0.679999925	 0.790697745	 0.657078401
 0.659999912	 0.825581454	 0.657078401
 0.800000000	 0.651162782	 0.657078401
 0.779999987	 0.686046491	 0.657078401
 0.759999975	 0.720930200	 0.657078401
 0.739999962	 0.755814036	 0.657078401
 0.719999950	 0.790697745	 0.657078401
 0.699999937	 0.825581454	 0.657078401
 0.479999925	 0.860465163	 0.657078401
 0.459999912	 0.895348873	 0.657078401
 0.440000025	 0.930232582	 0.657078401
 0.420000013	 0.965116291	 0.657078401
 0.400000000	 1.000000000	 0.657078401
 0.519999950	 0.860465163	 0.657078401
 0.499999937	 0.895348873	 0.657078401
 0.479999925	 0.930232582	 0.657078401
 0.459999912	 0.965116291	 0.657078401
 0.439999900	 1.000000000	 0.657078401
 0.559999975	 0.860465163	 0.657078401
 0.539999962	 0.895348873	 0.657078401
 0.519999950	 0.930232582	 0.657078401
 0.499999937	 0.965116291	 0.657078401
 0.479999925	 1.000000000	 0.657078401
 0.600000000	 0.860465163	 0.657078401
 0.579999987	 0.895348873	 0.657078401
 0.559999975	 0.930232582	 0.657078401
 0.539999962	 0.965116291	 0.657078401
 0.519999950	 1.000000000	 0.657078401
 0.639999900	 0.860465163	 0.657078401
 0.620000013	 0.895348873	 0.657078401
 0.600000000	 0.930232582	 0.657078401
 0.579999987	 0.965116291	 0.657078401
 0.559999975	 1.000000000	 0.657078401
 0.679999925	 0.860465163	 0.657078401
 0.659999912	 0.895348873	 0.657078401
 0.640000025	 0.930232582	 0.657078401
 0.620000013	 0.965116291	 0.657078401
 0.600000000	 1.000000000	 0.657078401
 1.000000000	 0.372092982	 0.657078401
 0.979999987	 0.406976818	 0.657078401
 0.959999975	 0.441860527	 0.657078401
 0.939999962	 0.476744236	 0.657078401
 0.919999950	 0.511627945	 0.657078401
 0.899999937	 0.546511654	 0.657078401
 0.879999925	 0.581395364	 0.657078401
 0.859999912	 0.616279073	 0.657078401
 1.000000000	 0.441860527	 0.657078401
 0.979999987	 0.476744236	 0.657078401
 0.959999975	 0.511627945	 0.657078401
 0.939999962	 0.546511654	 0.657078401
 0.919999950	 0.581395364	 0.657078401
 0.899999937	 0.616279073	 0.657078401
 1.000000000	 0.511627945	 0.657078401
 0.979999987	 0.546511654	 0.657078401
 0.959999975	 0.581395364	 0.657078401
 0.939999962	 0.616279073	 0.657078401
 1.000000000	 0.581395364	 0.657078401
 0.979999987	 0.616279073	 0.657078401
 0.840000025	 0.651162782	 0.657078401
 0.820000013	 0.686046491	 0.657078401
 0.800000000	 0.720930200	 0.657078401
 0.779999987	 0.755814036	 0.657078401
 0.759999975	 0.790697745	 0.657078401
 0.739999962	 0.825581454	 0.657078401
 0.879999925	 0.651162782	 0.657078401
 0.859999912	 0.686046491	 0.657078401
 0.840000025	 0.720930200	 0.657078401
 0.820000013	 0.755814036	 0.657078401
 0.800000000	 0.790697745	 0.657078401
 0.779999987	 0.825581454	 0.657078401
 0.919999950	 0.651162782	 0.657078401
 0.899999937	 0.686046491	 0.657078401
 0.879999925	 0.720930200	 0.657078401
 0.859999912	 0.755814036	 0.657078401
 0.840000025	 0.790697745	 0.657078401
 0.820000013	 0.825581454	 0.657078401
 0.959999975	 0.651162782	 0.657078401
 0.939999962	 0.686046491	 0.657078401
 0.919999950	 0.720930200	 0.657078401
 0.899999937	 0.755814036	 0.657078401
 0.879999925	 0.790697745	 0.657078401
 0.860000038	 0.825581454	 0.657078401
 1.000000000	 0.651162782	 0.657078401
 0.979999987	 0.686046491	 0.657078401
 0.959999975	 0.720930200	 0.657078401
 0.939999962	 0.755814036	 0.657078401
 0.919999950	 0.790697745	 0.657078401
 0.899999937	 0.825581454	 0.657078401
 1.000000000	 0.720930200	 0.657078401
 0.979999987	 0.755814036	 0.657078401
 0.959999975	 0.790697745	 0.657078401
 0.939999962	 0.825581454	 0.657078401
 0.719999950	 0.860465163	 0.657078401
 0.699999937	 0.895348873	 0.657078401
 0.679999925	 0.930232582	 0.657078401
 0.659999912	 0.965116291	 0.657078401
 0.639999900	 1.000000000	 0.657078401
 0.759999975	 0.860465163	 0.657078401
 0.739999962	 0.895348873	 0.657078401
 0.719999950	 0.930232582	 0.657078401
 0.699999937	 0.965116291	 0.657078401
 0.679999925	 1.000000000	 0.657078401
 0.800000000	 0.860465163	 0.657078401
 0.779999987	 0.895348873	 0.657078401
 0.759999975	 0.930232582	 0.657078401
 0.739999962	 0.965116291	 0.657078401
 0.719999950	 1.000000000	 0.657078401
 0.840000025	 0.860465163	 0.657078401
 0.820000013	 0.895348873	 0.657078401
 0.800000000	 0.930232582	 0.657078401
 0.779999987	 0.965116291	 0.657078401
 0.759999975	 1.000000000	 0.657078401
 0.879999925	 0.860465163	 0.657078401
 0.859999912	 0.895348873	 0.657078401
 0.839999900	 0.930232582	 0.657078401
 0.820000013	 0.965116291	 0.657078401
 0.800000000	 1.000000000	 0.657078401
 0.919999950	 0.860465163	 0.657078401
 0.899999937	 0.895348873	 0.657078401
 0.879999925	 0.930232582	 0.657078401
 0.859999912	 0.965116291	 0.657078401
 0.840000025	 1.000000000	 0.657078401
 1.000000000	 0.790697745	 0.657078401
 0.979999987	 0.825581454	 0.657078401
 0.959999975	 0.860465163	 0.657078401
 0.939999962	 0.895348873	 0.657078401
 0.919999950	 0.930232582	 0.657078401
 0.899999937	 0.965116291	 0.657078401
 0.879999925	 1.000000000	 0.657078401
 1.000000000	 0.860465163	 0.657078401
 0.979999987	 0.895348873	 0.657078401
 0.959999975	 0.930232582	 0.657078401
 0.939999962	 0.965116291	 0.657078401
 0.919999950	 1.000000000	 0.657078401
 1.000000000	 0.930232582	 0.657078401
 0.979999987	 0.965116291	 0.657078401
 0.959999975	 1.000000000	 0.657078401
 1.000000000	 1.000000000	 0.657078401
 0.020000013	 0.011627945	 1.000000000
 0.000000000	 0.046511654	 1.000000000
 0.060000038	 0.011627945	 1.000000000
 0.040000025	 0.046511654	 1.000000000
 0.020000013	 0.081395364	 1.000000000
 0.000000000	 0.116279073	 1.000000000
 0.100000063	 0.011627945	 1.000000000
 0.080000050	 0.046511654	 1.000000000
 0.060000038	 0.081395364	 1.000000000
 0.040000025	 0.116279073	 1.000000000
 0.020000013	 0.151162782	 1.000000000
 0.000000000	 0.186046491	 1.000000000
 0.139999962	 0.011627945	 1.000000000
 0.120000075	 0.046511654	 1.000000000
 0.100000063	 0.081395364	 1.000000000
 0.080000050	 0.116279073	 1.000000000
 0.060000038	 0.151162782	 1.000000000
 0.040000025	 0.186046491	 1.000000000
 0.179999987	 0.011627945	 1.000000000
 0.159999975	 0.046511654	 1.000000000
 0.139999962	 0.081395364	 1.000000000
 0.120000075	 0.116279073	 1.000000000
 0.100000063	 0.151162782	 1.000000000
 0.080000050	 0.186046491	 1.000000000
 0.220000013	 0.011627945	 1.000000000
 0.200000000	 0.046511654	 1.000000000
 0.179999987	 0.081395364	 1.000000000
 0.159999975	 0.116279073	 1.000000000
 0.139999962	 0.151162782	 1.000000000
 0.119999950	 0.186046491	 1.000000000
 0.020000013	 0.011627945	 0.314163372
 0.000000000	 0.046511654	 0.314163372
 0.060000038	 0.011627945	 0.314163372
 0.040000025	 0.046511654	 0.314163372
 0.020000013	 0.081395364	 0.314163372
 0.000000000	 0.116279073	 0.314163372
 0.100000063	 0.011627945	 0.314163372
 0.080000050	 0.046511654	 0.314163372
 0.060000038	 0.081395364	 0.314163372
 0.040000025	 0.116279073	 0.314163372