POSCAR_of_bath_test
1.0
   79.80198	    0.00000	    0.00000
    0.00000	   79.72302	    0.00000
    0.00000	    0.00000	    4.56565
 Mo   S  
 741   1481  
Direct
 0.022431774	 0.003474279	 0.657078401
 0.062332539	 0.003474279	 0.657078401
 0.002481392	 0.038063535	 0.657078401
 0.042382156	 0.038063535	 0.657078401
 0.022431774	 0.072652792	 0.657078401
 0.002481392	 0.107242174	 0.657078401
 0.082282921	 0.038063535	 0.657078401
 0.062332539	 0.072652792	 0.657078401
 0.042382156	 0.107242174	 0.657078401
 0.022431774	 0.141831431	 0.657078401
 0.002481392	 0.176420688	 0.657078401
 0.122183685	 0.038063535	 0.657078401
 0.102233303	 0.072652792	 0.657078401
 0.082282921	 0.107242174	 0.657078401
 0.062332539	 0.141831431	 0.657078401
 0.042382156	 0.176420688	 0.657078401
 0.022431774	 0.211009944	 0.657078401
 0.162084450	 0.038063535	 0.657078401
 0.142134067	 0.072652792	 0.657078401
 0.122183685	 0.107242174	 0.657078401
 0.102233303	 0.141831431	 0.657078401
 0.082282921	 0.176420688	 0.657078401
 0.062332539	 0.211009944	 0.657078401
 0.002481392	 0.245599201	 0.657078401
 0.042382156	 0.245599201	 0.657078401
 0.022431774	 0.280188457	 0.657078401
 0.002481392	 0.314777714	 0.657078401
 0.082282921	 0.245599201	 0.657078401
 0.062332539	 0.280188457	 0.657078401
 0.042382156	 0.314777714	 0.657078401
 0.022431774	 0.349366971	 0.657078401
 0.002481392	 0.383956227	 0.657078401
 0.122183685	 0.245599201	 0.657078401
 0.102233303	 0.280188457	 0.657078401
 0.082282921	 0.314777714	 0.657078401
 0.062332539	 0.349366971	 0.657078401
 0.042382156	 0.383956227	 0.657078401
 0.022431774	 0.418545484	 0.657078401
 0.162084450	 0.245599201	 0.657078401
 0.142134067	 0.280188457	 0.657078401
 0.122183685	 0.314777714	 0.657078401
 0.102233303	 0.349366971	 0.657078401
 0.082282921	 0.383956227	 0.657078401
 0.062332539	 0.418545484	 0.657078401
 0.002481392	 0.453134741	 0.657078401
 0.042382156	 0.453134741	 0.657078401
 0.022431774	 0.487724123	 0.657078401
 0.002481392	 0.522313379	 0.657078401
 0.082282921	 0.453134741	 0.657078401
 0.062332539	 0.487724123	 0.657078401
 0.042382156	 0.522313379	 0.657078401
 0.022431774	 0.556902636	 0.657078401
 0.002481392	 0.591491893	 0.657078401
 0.122183685	 0.453134741	 0.657078401
 0.102233303	 0.487724123	 0.657078401
 0.082282921	 0.522313379	 0.657078401
 0.062332539	 0.556902636	 0.657078401
 0.042382156	 0.591491893	 0.657078401
 0.022431774	 0.626081149	 0.657078401
 0.162084450	 0.453134741	 0.657078401
 0.142134067	 0.487724123	 0.657078401
 0.122183685	 0.522313379	 0.657078401
 0.102233303	 0.556902636	 0.657078401
 0.082282921	 0.591491893	 0.657078401
 0.062332539	 0.626081149	 0.657078401
 0.002481392	 0.660670406	 0.657078401
 0.042382156	 0.660670406	 0.657078401
 0.022431774	 0.695259663	 0.657078401
 0.002481392	 0.729848919	 0.657078401
 0.082282921	 0.660670406	 0.657078401
 0.062332539	 0.695259663	 0.657078401
 0.042382156	 0.729848919	 0.657078401
 0.022431774	 0.764438176	 0.657078401
 0.002481392	 0.799027433	 0.657078401
 0.122183685	 0.660670406	 0.657078401
 0.102233303	 0.695259663	 0.657078401
 0.082282921	 0.729848919	 0.657078401
 0.062332539	 0.764438176	 0.657078401
 0.042382156	 0.799027433	 0.657078401
 0.022431774	 0.833616815	 0.657078401
 0.162084450	 0.660670406	 0.657078401
 0.142134067	 0.695259663	 0.657078401
 0.122183685	 0.729848919	 0.657078401
 0.102233303	 0.764438176	 0.657078401
 0.082282921	 0.799027433	 0.657078401
 0.062332539	 0.833616815	 0.657078401
 0.002481392	 0.868206071	 0.657078401
 0.042382156	 0.868206071	 0.657078401
 0.022431774	 0.902795328	 0.657078401
 0.002481392	 0.937384585	 0.657078401
 0.082282921	 0.868206071	 0.657078401
 0.062332539	 0.902795328	 0.657078401
 0.042382156	 0.937384585	 0.657078401
 0.022431774	 0.971973841	 0.657078401
 0.122183685	 0.868206071	 0.657078401
 0.102233303	 0.902795328	 0.657078401
 0.082282921	 0.937384585	 0.657078401
 0.062332539	 0.971973841	 0.657078401
 0.162084450	 0.868206071	 0.657078401
 0.142134067	 0.902795328	 0.657078401
 0.122183685	 0.937384585	 0.657078401
 0.102233303	 0.971973841	 0.657078401
 0.142134067	 0.022010581	 0.657078401
 0.122183685	 0.056599838	 0.657078401
 0.102233303	 0.091189094	 0.657078401
 0.182034706	 0.022010581	 0.657078401
 0.162084450	 0.056599838	 0.657078401
 0.142134067	 0.091189094	 0.657078401
 0.221935471	 0.022010581	 0.657078401
 0.201985089	 0.056599838	 0.657078401
 0.182034706	 0.091189094	 0.657078401
 0.261836235	 0.022010581	 0.657078401
 0.241885853	 0.056599838	 0.657078401
 0.221935471	 0.091189094	 0.657078401
 0.301737000	 0.022010581	 0.657078401
 0.281786617	 0.056599838	 0.657078401
 0.261836235	 0.091189094	 0.657078401
 0.341637764	 0.022010581	 0.657078401
 0.321687382	 0.056599838	 0.657078401
 0.301737000	 0.091189094	 0.657078401
 0.201985089	 0.125778351	 0.657078401
 0.182034706	 0.160367733	 0.657078401
 0.162084450	 0.194956990	 0.657078401
 0.142134067	 0.229546246	 0.657078401
 0.122183685	 0.264135503	 0.657078401
 0.102233303	 0.298724760	 0.657078401
 0.241885853	 0.125778351	 0.657078401
 0.221935471	 0.160367733	 0.657078401
 0.201985089	 0.194956990	 0.657078401
 0.182034706	 0.229546246	 0.657078401
 0.162084450	 0.264135503	 0.657078401
 0.142134067	 0.298724760	 0.657078401
 0.281786617	 0.125778351	 0.657078401
 0.261836235	 0.160367733	 0.657078401
 0.241885853	 0.194956990	 0.657078401
 0.221935471	 0.229546246	 0.657078401
 0.201985089	 0.264135503	 0.657078401
 0.182034706	 0.298724760	 0.657078401
 0.321687382	 0.125778351	 0.657078401
 0.301737000	 0.160367733	 0.657078401
 0.281786617	 0.194956990	 0.657078401
 0.261836235	 0.229546246	 0.657078401
 0.241885853	 0.264135503	 0.657078401
 0.221935471	 0.298724760	 0.657078401
 0.361588146	 0.125778351	 0.657078401
 0.341637764	 0.160367733	 0.657078401
 0.321687382	 0.194956990	 0.657078401
 0.301737000	 0.229546246	 0.657078401
 0.281786617	 0.264135503	 0.657078401
 0.261836235	 0.298724760	 0.657078401
 0.401488785	 0.125778351	 0.657078401
 0.381538403	 0.160367733	 0.657078401
 0.361588146	 0.194956990	 0.657078401
 0.341637764	 0.229546246	 0.657078401
 0.321687382	 0.264135503	 0.657078401
 0.301737000	 0.298724760	 0.657078401
 0.201985089	 0.333314016	 0.657078401
 0.182034706	 0.367903273	 0.657078401
 0.162084450	 0.402492530	 0.657078401
 0.142134067	 0.437081786	 0.657078401
 0.122183685	 0.471671043	 0.657078401
 0.102233303	 0.506260425	 0.657078401
 0.241885853	 0.333314016	 0.657078401
 0.221935471	 0.367903273	 0.657078401
 0.201985089	 0.402492530	 0.657078401
 0.182034706	 0.437081786	 0.657078401
 0.162084450	 0.471671043	 0.657078401
 0.142134067	 0.506260425	 0.657078401
 0.281786617	 0.333314016	 0.657078401
 0.261836235	 0.367903273	 0.657078401
 0.241885853	 0.402492530	 0.657078401
 0.221935471	 0.437081786	 0.657078401
 0.201985089	 0.471671043	 0.657078401
 0.182034706	 0.506260425	 0.657078401
 0.321687382	 0.333314016	 0.657078401
 0.301737000	 0.367903273	 0.657078401
 0.281786617	 0.402492530	 0.657078401
 0.261836235	 0.437081786	 0.657078401
 0.241885853	 0.471671043	 0.657078401
 0.221935471	 0.506260425	 0.657078401
 0.361588146	 0.333314016	 0.657078401
 0.341637764	 0.367903273	 0.657078401
 0.321687382	 0.402492530	 0.657078401
 0.301737000	 0.437081786	 0.657078401
 0.281786617	 0.471671043	 0.657078401
 0.261836235	 0.506260425	 0.657078401
 0.401488785	 0.333314016	 0.657078401
 0.381538403	 0.367903273	 0.657078401
 0.361588146	 0.402492530	 0.657078401
 0.341637764	 0.437081786	 0.657078401
 0.321687382	 0.471671043	 0.657078401
 0.301737000	 0.506260425	 0.657078401
 0.201985089	 0.540849682	 0.657078401
 0.182034706	 0.575438938	 0.657078401
 0.162084450	 0.610028195	 0.657078401
 0.142134067	 0.644617452	 0.657078401
 0.122183685	 0.679206708	 0.657078401
 0.102233303	 0.713795965	 0.657078401
 0.241885853	 0.540849682	 0.657078401
 0.221935471	 0.575438938	 0.657078401
 0.201985089	 0.610028195	 0.657078401
 0.182034706	 0.644617452	 0.657078401
 0.162084450	 0.679206708	 0.657078401
 0.142134067	 0.713795965	 0.657078401
 0.281786617	 0.540849682	 0.657078401
 0.261836235	 0.575438938	 0.657078401
 0.241885853	 0.610028195	 0.657078401
 0.221935471	 0.644617452	 0.657078401
 0.201985089	 0.679206708	 0.657078401
 0.182034706	 0.713795965	 0.657078401
 0.321687382	 0.540849682	 0.657078401
 0.301737000	 0.575438938	 0.657078401
 0.281786617	 0.610028195	 0.657078401
 0.261836235	 0.644617452	 0.657078401
 0.241885853	 0.679206708	 0.657078401
 0.221935471	 0.713795965	 0.657078401
 0.361588146	 0.540849682	 0.657078401
 0.341637764	 0.575438938	 0.657078401
 0.321687382	 0.610028195	 0.657078401
 0.301737000	 0.644617452	 0.657078401
 0.281786617	 0.679206708	 0.657078401
 0.261836235	 0.713795965	 0.657078401
 0.401488785	 0.540849682	 0.657078401
 0.381538403	 0.575438938	 0.657078401
 0.361588146	 0.610028195	 0.657078401
 0.341637764	 0.644617452	 0.657078401
 0.321687382	 0.679206708	 0.657078401
 0.301737000	 0.713795965	 0.657078401
 0.201985089	 0.748385222	 0.657078401
 0.182034706	 0.782974478	 0.657078401
 0.162084450	 0.817563735	 0.657078401
 0.142134067	 0.852152992	 0.657078401
 0.122183685	 0.886742374	 0.657078401
 0.102233303	 0.921331630	 0.657078401
 0.241885853	 0.748385222	 0.657078401
 0.221935471	 0.782974478	 0.657078401
 0.201985089	 0.817563735	 0.657078401
 0.182034706	 0.852152992	 0.657078401
 0.162084450	 0.886742374	 0.657078401
 0.142134067	 0.921331630	 0.657078401
 0.281786617	 0.748385222	 0.657078401
 0.261836235	 0.782974478	 0.657078401
 0.241885853	 0.817563735	 0.657078401
 0.221935471	 0.852152992	 0.657078401
 0.201985089	 0.886742374	 0.657078401
 0.182034706	 0.921331630	 0.657078401
 0.321687382	 0.748385222	 0.657078401
 0.301737000	 0.782974478	 0.657078401
 0.281786617	 0.817563735	 0.657078401
 0.261836235	 0.852152992	 0.657078401
 0.241885853	 0.886742374	 0.657078401
 0.221935471	 0.921331630	 0.657078401
 0.361588146	 0.748385222	 0.657078401
 0.341637764	 0.782974478	 0.657078401
 0.321687382	 0.817563735	 0.657078401
 0.301737000	 0.852152992	 0.657078401
 0.281786617	 0.886742374	 0.657078401
 0.261836235	 0.921331630	 0.657078401
 0.401488785	 0.748385222	 0.657078401
 0.381538403	 0.782974478	 0.657078401
 0.361588146	 0.817563735	 0.657078401
 0.341637764	 0.852152992	 0.657078401
 0.321687382	 0.886742374	 0.657078401
 0.301737000	 0.921331630	 0.657078401
 0.201985089	 0.955920887	 0.657078401
 0.182034706	 0.990510144	 0.657078401
 0.241885853	 0.955920887	 0.657078401
 0.221935471	 0.990510144	 0.657078401
 0.281786617	 0.955920887	 0.657078401
 0.261836235	 0.990510144	 0.657078401
 0.321687382	 0.955920887	 0.657078401
 0.301737000	 0.990510144	 0.657078401
 0.361588146	 0.955920887	 0.657078401
 0.341637764	 0.990510144	 0.657078401
 0.401488785	 0.955920887	 0.657078401
 0.381538403	 0.990510144	 0.657078401
 0.441389549	 0.005957627	 0.657078401
 0.421439167	 0.040546883	 0.657078401
 0.401488785	 0.075136140	 0.657078401
 0.381538403	 0.109725397	 0.657078401
 0.361588146	 0.144314653	 0.657078401
 0.341637764	 0.178903910	 0.657078401
 0.481290314	 0.005957627	 0.657078401
 0.461339932	 0.040546883	 0.657078401
 0.441389549	 0.075136140	 0.657078401
 0.421439167	 0.109725397	 0.657078401
 0.401488785	 0.144314653	 0.657078401
 0.381538403	 0.178903910	 0.657078401
 0.521191078	 0.005957627	 0.657078401
 0.501240696	 0.040546883	 0.657078401
 0.481290314	 0.075136140	 0.657078401
 0.461339932	 0.109725397	 0.657078401
 0.441389549	 0.144314653	 0.657078401
 0.421439167	 0.178903910	 0.657078401
 0.561091843	 0.005957627	 0.657078401
 0.541141460	 0.040546883	 0.657078401
 0.521191078	 0.075136140	 0.657078401
 0.501240696	 0.109725397	 0.657078401
 0.481290314	 0.144314653	 0.657078401
 0.461339932	 0.178903910	 0.657078401
 0.600992482	 0.005957627	 0.657078401
 0.581042099	 0.040546883	 0.657078401
 0.561091843	 0.075136140	 0.657078401
 0.541141460	 0.109725397	 0.657078401
 0.521191078	 0.144314653	 0.657078401
 0.501240696	 0.178903910	 0.657078401
 0.640893246	 0.005957627	 0.657078401
 0.620942864	 0.040546883	 0.657078401
 0.600992482	 0.075136140	 0.657078401
 0.581042099	 0.109725397	 0.657078401
 0.561091843	 0.144314653	 0.657078401
 0.541141460	 0.178903910	 0.657078401
 0.441389549	 0.213493292	 0.657078401
 0.421439167	 0.248082549	 0.657078401
 0.401488785	 0.282671805	 0.657078401
 0.381538403	 0.317261062	 0.657078401
 0.361588146	 0.351850319	 0.657078401
 0.341637764	 0.386439575	 0.657078401
 0.481290314	 0.213493292	 0.657078401
 0.461339932	 0.248082549	 0.657078401
 0.441389549	 0.282671805	 0.657078401
 0.421439167	 0.317261062	 0.657078401
 0.401488785	 0.351850319	 0.657078401
 0.381538403	 0.386439575	 0.657078401
 0.521191078	 0.213493292	 0.657078401
 0.501240696	 0.248082549	 0.657078401
 0.481290314	 0.282671805	 0.657078401
 0.461339932	 0.317261062	 0.657078401
 0.441389549	 0.351850319	 0.657078401
 0.421439167	 0.386439575	 0.657078401
 0.561091843	 0.213493292	 0.657078401
 0.541141460	 0.248082549	 0.657078401
 0.521191078	 0.282671805	 0.657078401
 0.501240696	 0.317261062	 0.657078401
 0.481290314	 0.351850319	 0.657078401
 0.461339932	 0.386439575	 0.657078401
 0.600992482	 0.213493292	 0.657078401
 0.581042099	 0.248082549	 0.657078401
 0.561091843	 0.282671805	 0.657078401
 0.541141460	 0.317261062	 0.657078401
 0.521191078	 0.351850319	 0.657078401
 0.501240696	 0.386439575	 0.657078401
 0.640893246	 0.213493292	 0.657078401
 0.620942864	 0.248082549	 0.657078401
 0.600992482	 0.282671805	 0.657078401
 0.581042099	 0.317261062	 0.657078401
 0.561091843	 0.351850319	 0.657078401
 0.541141460	 0.386439575	 0.657078401
 0.441389549	 0.421028832	 0.657078401
 0.421439167	 0.455618089	 0.657078401
 0.401488785	 0.490207345	 0.657078401
 0.381538403	 0.524796602	 0.657078401
 0.361588146	 0.559385984	 0.657078401
 0.341637764	 0.593975241	 0.657078401
 0.481290314	 0.421028832	 0.657078401
 0.461339932	 0.455618089	 0.657078401
 0.441389549	 0.490207345	 0.657078401
 0.421439167	 0.524796602	 0.657078401
 0.401488785	 0.559385984	 0.657078401
 0.381538403	 0.593975241	 0.657078401
 0.521191078	 0.421028832	 0.657078401
 0.501240696	 0.455618089	 0.657078401
 0.481290314	 0.490207345	 0.657078401
 0.461339932	 0.524796602	 0.657078401
 0.441389549	 0.559385984	 0.657078401
 0.421439167	 0.593975241	 0.657078401
 0.561091843	 0.421028832	 0.657078401
 0.541141460	 0.455618089	 0.657078401
 0.521191078	 0.490207345	 0.657078401
 0.501240696	 0.524796602	 0.657078401
 0.481290314	 0.559385984	 0.657078401
 0.461339932	 0.593975241	 0.657078401
 0.600992482	 0.421028832	 0.657078401
 0.581042099	 0.455618089	 0.657078401
 0.561091843	 0.490207345	 0.657078401
 0.541141460	 0.524796602	 0.657078401
 0.521191078	 0.559385984	 0.657078401
 0.501240696	 0.593975241	 0.657078401
 0.640893246	 0.421028832	 0.657078401
 0.620942864	 0.455618089	 0.657078401
 0.600992482	 0.490207345	 0.657078401
 0.581042099	 0.524796602	 0.657078401
 0.561091843	 0.559385984	 0.657078401
 0.541141460	 0.593975241	 0.657078401
 0.441389549	 0.628564497	 0.657078401
 0.421439167	 0.663153754	 0.657078401
 0.401488785	 0.697743011	 0.657078401
 0.381538403	 0.732332267	 0.657078401
 0.361588146	 0.766921524	 0.657078401
 0.341637764	 0.801510781	 0.657078401
 0.481290314	 0.628564497	 0.657078401
 0.461339932	 0.663153754	 0.657078401
 0.441389549	 0.697743011	 0.657078401
 0.421439167	 0.732332267	 0.657078401
 0.401488785	 0.766921524	 0.657078401
 0.381538403	 0.801510781	 0.657078401
 0.521191078	 0.628564497	 0.657078401
 0.501240696	 0.663153754	 0.657078401
 0.481290314	 0.697743011	 0.657078401
 0.461339932	 0.732332267	 0.657078401
 0.441389549	 0.766921524	 0.657078401
 0.421439167	 0.801510781	 0.657078401
 0.561091843	 0.628564497	 0.657078401
 0.541141460	 0.663153754	 0.657078401
 0.521191078	 0.697743011	 0.657078401
 0.501240696	 0.732332267	 0.657078401
 0.481290314	 0.766921524	 0.657078401
 0.461339932	 0.801510781	 0.657078401
 0.600992482	 0.628564497	 0.657078401
 0.581042099	 0.663153754	 0.657078401
 0.561091843	 0.697743011	 0.657078401
 0.541141460	 0.732332267	 0.657078401
 0.521191078	 0.766921524	 0.657078401
 0.501240696	 0.801510781	 0.657078401
 0.640893246	 0.628564497	 0.657078401
 0.620942864	 0.663153754	 0.657078401
 0.600992482	 0.697743011	 0.657078401
 0.581042099	 0.732332267	 0.657078401
 0.561091843	 0.766921524	 0.657078401
 0.541141460	 0.801510781	 0.657078401
 0.441389549	 0.836100037	 0.657078401
 0.421439167	 0.870689294	 0.657078401
 0.401488785	 0.905278676	 0.657078401
 0.381538403	 0.939867933	 0.657078401
 0.361588146	 0.974457189	 0.657078401
 0.481290314	 0.836100037	 0.657078401
 0.461339932	 0.870689294	 0.657078401
 0.441389549	 0.905278676	 0.657078401
 0.421439167	 0.939867933	 0.657078401
 0.401488785	 0.974457189	 0.657078401
 0.521191078	 0.836100037	 0.657078401
 0.501240696	 0.870689294	 0.657078401
 0.481290314	 0.905278676	 0.657078401
 0.461339932	 0.939867933	 0.657078401
 0.441389549	 0.974457189	 0.657078401
 0.561091843	 0.836100037	 0.657078401
 0.541141460	 0.870689294	 0.657078401
 0.521191078	 0.905278676	 0.657078401
 0.501240696	 0.939867933	 0.657078401
 0.481290314	 0.974457189	 0.657078401
 0.600992482	 0.836100037	 0.657078401
 0.581042099	 0.870689294	 0.657078401
 0.561091843	 0.905278676	 0.657078401
 0.541141460	 0.939867933	 0.657078401
 0.521191078	 0.974457189	 0.657078401
 0.640893246	 0.836100037	 0.657078401
 0.620942864	 0.870689294	 0.657078401
 0.600992482	 0.905278676	 0.657078401
 0.581042099	 0.939867933	 0.657078401
 0.561091843	 0.974457189	 0.657078401
 0.600992482	 0.024493929	 0.657078401
 0.581042099	 0.059083186	 0.657078401
 0.640893246	 0.024493929	 0.657078401
 0.620942864	 0.059083186	 0.657078401
 0.680794010	 0.024493929	 0.657078401
 0.660843628	 0.059083186	 0.657078401
 0.720694775	 0.024493929	 0.657078401
 0.700744393	 0.059083186	 0.657078401
 0.760595414	 0.024493929	 0.657078401
 0.740645157	 0.059083186	 0.657078401
 0.800496178	 0.024493929	 0.657078401
 0.780545796	 0.059083186	 0.657078401
 0.680794010	 0.093672442	 0.657078401
 0.660843628	 0.128261699	 0.657078401
 0.640893246	 0.162850956	 0.657078401
 0.620942864	 0.197440212	 0.657078401
 0.600992482	 0.232029594	 0.657078401
 0.581042099	 0.266618851	 0.657078401
 0.720694775	 0.093672442	 0.657078401
 0.700744393	 0.128261699	 0.657078401
 0.680794010	 0.162850956	 0.657078401
 0.660843628	 0.197440212	 0.657078401
 0.640893246	 0.232029594	 0.657078401
 0.620942864	 0.266618851	 0.657078401
 0.760595539	 0.093672442	 0.657078401
 0.740645157	 0.128261699	 0.657078401
 0.720694775	 0.162850956	 0.657078401
 0.700744393	 0.197440212	 0.657078401
 0.680794010	 0.232029594	 0.657078401
 0.660843628	 0.266618851	 0.657078401
 0.800496178	 0.093672442	 0.657078401
 0.780545921	 0.128261699	 0.657078401
 0.760595539	 0.162850956	 0.657078401
 0.740645157	 0.197440212	 0.657078401
 0.720694775	 0.232029594	 0.657078401
 0.700744393	 0.266618851	 0.657078401
 0.840396943	 0.093672442	 0.657078401
 0.820446560	 0.128261699	 0.657078401
 0.800496178	 0.162850956	 0.657078401
 0.780545796	 0.197440212	 0.657078401
 0.760595414	 0.232029594	 0.657078401
 0.740645157	 0.266618851	 0.657078401
 0.880297707	 0.093672442	 0.657078401
 0.860347325	 0.128261699	 0.657078401
 0.840396943	 0.162850956	 0.657078401
 0.820446560	 0.197440212	 0.657078401
 0.800496178	 0.232029594	 0.657078401
 0.780545796	 0.266618851	 0.657078401
 0.680794010	 0.301208108	 0.657078401
 0.660843628	 0.335797364	 0.657078401
 0.640893246	 0.370386621	 0.657078401
 0.620942864	 0.404975878	 0.657078401
 0.600992482	 0.439565134	 0.657078401
 0.581042099	 0.474154391	 0.657078401
 0.720694775	 0.301208108	 0.657078401
 0.700744393	 0.335797364	 0.657078401
 0.680794010	 0.370386621	 0.657078401
 0.660843628	 0.404975878	 0.657078401
 0.640893246	 0.439565134	 0.657078401
 0.620942864	 0.474154391	 0.657078401
 0.760595539	 0.301208108	 0.657078401
 0.740645157	 0.335797364	 0.657078401
 0.720694775	 0.370386621	 0.657078401
 0.700744393	 0.404975878	 0.657078401
 0.680794010	 0.439565134	 0.657078401
 0.660843628	 0.474154391	 0.657078401
 0.800496178	 0.301208108	 0.657078401
 0.780545921	 0.335797364	 0.657078401
 0.760595539	 0.370386621	 0.657078401
 0.740645157	 0.404975878	 0.657078401
 0.720694775	 0.439565134	 0.657078401
 0.700744393	 0.474154391	 0.657078401
 0.840396943	 0.301208108	 0.657078401
 0.820446560	 0.335797364	 0.657078401
 0.800496178	 0.370386621	 0.657078401
 0.780545796	 0.404975878	 0.657078401
 0.760595414	 0.439565134	 0.657078401
 0.740645157	 0.474154391	 0.657078401
 0.880297707	 0.301208108	 0.657078401
 0.860347325	 0.335797364	 0.657078401
 0.840396943	 0.370386621	 0.657078401
 0.820446560	 0.404975878	 0.657078401
 0.800496178	 0.439565134	 0.657078401
 0.780545796	 0.474154391	 0.657078401
 0.680794010	 0.508743648	 0.657078401
 0.660843628	 0.543332904	 0.657078401
 0.640893246	 0.577922286	 0.657078401
 0.620942864	 0.612511543	 0.657078401
 0.600992482	 0.647100800	 0.657078401
 0.581042099	 0.681690056	 0.657078401
 0.720694775	 0.508743648	 0.657078401
 0.700744393	 0.543332904	 0.657078401
 0.680794010	 0.577922286	 0.657078401
 0.660843628	 0.612511543	 0.657078401
 0.640893246	 0.647100800	 0.657078401
 0.620942864	 0.681690056	 0.657078401
 0.760595539	 0.508743648	 0.657078401
 0.740645157	 0.543332904	 0.657078401
 0.720694775	 0.577922286	 0.657078401
 0.700744393	 0.612511543	 0.657078401
 0.680794010	 0.647100800	 0.657078401
 0.660843628	 0.681690056	 0.657078401
 0.800496178	 0.508743648	 0.657078401
 0.780545921	 0.543332904	 0.657078401
 0.760595539	 0.577922286	 0.657078401
 0.740645157	 0.612511543	 0.657078401
 0.720694775	 0.647100800	 0.657078401
 0.700744393	 0.681690056	 0.657078401
 0.840396943	 0.508743648	 0.657078401
 0.820446560	 0.543332904	 0.657078401
 0.800496178	 0.577922286	 0.657078401
 0.780545796	 0.612511543	 0.657078401
 0.760595414	 0.647100800	 0.657078401
 0.740645157	 0.681690056	 0.657078401
 0.880297707	 0.508743648	 0.657078401
 0.860347325	 0.543332904	 0.657078401
 0.840396943	 0.577922286	 0.657078401
 0.820446560	 0.612511543	 0.657078401
 0.800496178	 0.647100800	 0.657078401
 0.780545796	 0.681690056	 0.657078401
 0.680794010	 0.716279313	 0.657078401
 0.660843628	 0.750868570	 0.657078401
 0.640893246	 0.785457826	 0.657078401
 0.620942864	 0.820047083	 0.657078401
 0.600992482	 0.854636340	 0.657078401
 0.581042099	 0.889225596	 0.657078401
 0.720694775	 0.716279313	 0.657078401
 0.700744393	 0.750868570	 0.657078401
 0.680794010	 0.785457826	 0.657078401
 0.660843628	 0.820047083	 0.657078401
 0.640893246	 0.854636340	 0.657078401
 0.620942864	 0.889225596	 0.657078401
 0.760595539	 0.716279313	 0.657078401
 0.740645157	 0.750868570	 0.657078401
 0.720694775	 0.785457826	 0.657078401
 0.700744393	 0.820047083	 0.657078401
 0.680794010	 0.854636340	 0.657078401
 0.660843628	 0.889225596	 0.657078401
 0.800496178	 0.716279313	 0.657078401
 0.780545921	 0.750868570	 0.657078401
 0.760595539	 0.785457826	 0.657078401
 0.740645157	 0.820047083	 0.657078401
 0.720694775	 0.854636340	 0.657078401
 0.700744393	 0.889225596	 0.657078401
 0.840396943	 0.716279313	 0.657078401
 0.820446560	 0.750868570	 0.657078401
 0.800496178	 0.785457826	 0.657078401
 0.780545796	 0.820047083	 0.657078401
 0.760595414	 0.854636340	 0.657078401
 0.740645157	 0.889225596	 0.657078401
 0.880297707	 0.716279313	 0.657078401
 0.860347325	 0.750868570	 0.657078401
 0.840396943	 0.785457826	 0.657078401
 0.820446560	 0.820047083	 0.657078401
 0.800496178	 0.854636340	 0.657078401
 0.780545796	 0.889225596	 0.657078401
 0.680794010	 0.923814853	 0.657078401
 0.660843628	 0.958404235	 0.657078401
 0.640893246	 0.992993492	 0.657078401
 0.720694775	 0.923814853	 0.657078401
 0.700744393	 0.958404235	 0.657078401
 0.680794010	 0.992993492	 0.657078401
 0.760595539	 0.923814853	 0.657078401
 0.740645157	 0.958404235	 0.657078401
 0.720694775	 0.992993492	 0.657078401
 0.800496178	 0.923814853	 0.657078401
 0.780545921	 0.958404235	 0.657078401
 0.760595539	 0.992993492	 0.657078401
 0.840396943	 0.923814853	 0.657078401
 0.820446560	 0.958404235	 0.657078401
 0.800496178	 0.992993492	 0.657078401
 0.880297707	 0.923814853	 0.657078401
 0.860347325	 0.958404235	 0.657078401
 0.840396943	 0.992993492	 0.657078401
 0.900248089	 0.008440975	 0.657078401
 0.880297707	 0.043030231	 0.657078401
 0.860347325	 0.077619488	 0.657078401
 0.840396943	 0.112208745	 0.657078401
 0.820446560	 0.146798001	 0.657078401
 0.940148853	 0.008440975	 0.657078401
 0.920198471	 0.043030231	 0.657078401
 0.900248089	 0.077619488	 0.657078401
 0.880297707	 0.112208745	 0.657078401
 0.860347325	 0.146798001	 0.657078401
 0.980049493	 0.008440975	 0.657078401
 0.960099236	 0.043030231	 0.657078401
 0.940148853	 0.077619488	 0.657078401
 0.920198471	 0.112208745	 0.657078401
 0.900248089	 0.146798001	 0.657078401
 0.999999875	 0.043030231	 0.657078401
 0.980049493	 0.077619488	 0.657078401
 0.960099236	 0.112208745	 0.657078401
 0.940148853	 0.146798001	 0.657078401
 0.999999875	 0.112208745	 0.657078401
 0.980049493	 0.146798001	 0.657078401
 0.920198471	 0.181387258	 0.657078401
 0.900248089	 0.215976515	 0.657078401
 0.880297707	 0.250565897	 0.657078401
 0.860347325	 0.285155153	 0.657078401
 0.840396943	 0.319744410	 0.657078401
 0.820446560	 0.354333667	 0.657078401
 0.960099236	 0.181387258	 0.657078401
 0.940148853	 0.215976515	 0.657078401
 0.920198471	 0.250565897	 0.657078401
 0.900248089	 0.285155153	 0.657078401
 0.880297707	 0.319744410	 0.657078401
 0.860347325	 0.354333667	 0.657078401
 0.999999875	 0.181387258	 0.657078401
 0.980049493	 0.215976515	 0.657078401
 0.960099236	 0.250565897	 0.657078401
 0.940148853	 0.285155153	 0.657078401
 0.920198471	 0.319744410	 0.657078401
 0.900248089	 0.354333667	 0.657078401
 0.999999875	 0.250565897	 0.657078401
 0.980049493	 0.285155153	 0.657078401
 0.960099236	 0.319744410	 0.657078401
 0.940148853	 0.354333667	 0.657078401
 0.999999875	 0.319744410	 0.657078401
 0.980049493	 0.354333667	 0.657078401
 0.920198471	 0.388922923	 0.657078401
 0.900248089	 0.423512180	 0.657078401
 0.880297707	 0.458101437	 0.657078401
 0.860347325	 0.492690693	 0.657078401
 0.840396943	 0.527279950	 0.657078401
 0.820446560	 0.561869207	 0.657078401
 0.960099236	 0.388922923	 0.657078401
 0.940148853	 0.423512180	 0.657078401
 0.920198471	 0.458101437	 0.657078401
 0.900248089	 0.492690693	 0.657078401
 0.880297707	 0.527279950	 0.657078401
 0.860347325	 0.561869207	 0.657078401
 0.999999875	 0.388922923	 0.657078401
 0.980049493	 0.423512180	 0.657078401
 0.960099236	 0.458101437	 0.657078401
 0.940148853	 0.492690693	 0.657078401
 0.920198471	 0.527279950	 0.657078401
 0.900248089	 0.561869207	 0.657078401
 0.999999875	 0.458101437	 0.657078401
 0.980049493	 0.492690693	 0.657078401
 0.960099236	 0.527279950	 0.657078401
 0.940148853	 0.561869207	 0.657078401
 0.999999875	 0.527279950	 0.657078401
 0.980049493	 0.561869207	 0.657078401
 0.920198471	 0.596458463	 0.657078401
 0.900248089	 0.631047845	 0.657078401
 0.880297707	 0.665637102	 0.657078401
 0.860347325	 0.700226359	 0.657078401
 0.840396943	 0.734815615	 0.657078401
 0.820446560	 0.769404872	 0.657078401
 0.960099236	 0.596458463	 0.657078401
 0.940148853	 0.631047845	 0.657078401
 0.920198471	 0.665637102	 0.657078401
 0.900248089	 0.700226359	 0.657078401
 0.880297707	 0.734815615	 0.657078401
 0.860347325	 0.769404872	 0.657078401
 0.999999875	 0.596458463	 0.657078401
 0.980049493	 0.631047845	 0.657078401
 0.960099236	 0.665637102	 0.657078401
 0.940148853	 0.700226359	 0.657078401
 0.920198471	 0.734815615	 0.657078401
 0.900248089	 0.769404872	 0.657078401
 0.999999875	 0.665637102	 0.657078401
 0.980049493	 0.700226359	 0.657078401
 0.960099236	 0.734815615	 0.657078401
 0.940148853	 0.769404872	 0.657078401
 0.999999875	 0.734815615	 0.657078401
 0.980049493	 0.769404872	 0.657078401
 0.920198471	 0.803994129	 0.657078401
 0.900248089	 0.838583385	 0.657078401
 0.880297707	 0.873172642	 0.657078401
 0.860347325	 0.907761899	 0.657078401
 0.840396943	 0.942351155	 0.657078401
 0.820446560	 0.976940537	 0.657078401
 0.960099236	 0.803994129	 0.657078401
 0.940148853	 0.838583385	 0.657078401
 0.920198471	 0.873172642	 0.657078401
 0.900248089	 0.907761899	 0.657078401
 0.880297707	 0.942351155	 0.657078401
 0.860347325	 0.976940537	 0.657078401
 0.999999875	 0.803994129	 0.657078401
 0.980049493	 0.838583385	 0.657078401
 0.960099236	 0.873172642	 0.657078401
 0.940148853	 0.907761899	 0.657078401
 0.920198471	 0.942351155	 0.657078401
 0.900248089	 0.976940537	 0.657078401
 0.999999875	 0.873172642	 0.657078401
 0.980049493	 0.907761899	 0.657078401
 0.960099236	 0.942351155	 0.657078401
 0.940148853	 0.976940537	 0.657078401
 0.999999875	 0.942351155	 0.657078401
 0.980049493	 0.976940537	 0.657078401
 0.022431900	 0.026533741	 1.000000000
 0.002481517	 0.061123124	 1.000000000
 0.062332539	 0.026533741	 1.000000000
 0.042382156	 0.061123124	 1.000000000
 0.022431900	 0.095712380	 1.000000000
 0.002481517	 0.130301637	 1.000000000
 0.102233303	 0.026533741	 1.000000000
 0.082282921	 0.061123124	 1.000000000
 0.062332539	 0.095712380	 1.000000000
 0.042382156	 0.130301637	 1.000000000
 0.022431900	 0.164890893	 1.000000000
 0.002481517	 0.199480150	 1.000000000
 0.142134067	 0.026533741	 1.000000000
 0.122183685	 0.061123124	 1.000000000
 0.102233303	 0.095712380	 1.000000000
 0.082282921	 0.130301637	 1.000000000
 0.062332539	 0.164890893	 1.000000000
 0.042382156	 0.199480150	 1.000000000
 0.182034832	 0.026533741	 1.000000000
 0.162084450	 0.061123124	 1.000000000
 0.142134067	 0.095712380	 1.000000000
 0.122183685	 0.130301637	 1.000000000
 0.102233303	 0.164890893	 1.000000000
 0.082282921	 0.199480150	 1.000000000